<?xml version="1.0"?>
<VTKFile type="UnstructuredGrid"  version="0.1"  >
<UnstructuredGrid>
<Piece  NumberOfPoints="405" NumberOfCells="1536">
<Points>
<DataArray  type="Float64"  NumberOfComponents="3"  format="ascii">0.45 0 -0.2  0.475 0 -0.2  0.5 0 -0.2  0.525 0 -0.2  0.55 0 -0.2  0.452974460927723 0.02813022081136385 -0.1980967811826471  0.4767041358167627 0.02648375001092972 -0.1989455242119576  0.5010277249489239 0.02526405687935994 -0.1999405768065769  0.5258665558029715 0.02390948144073911 -0.2010869214374487  0.5512499211571878 0.02181788947913467 -0.2022259118581342  0.4562417921484207 0.05534386974073187 -0.197827817631549  0.4799172166740647 0.05260244595091999 -0.1988361426815581  0.5041058739793041 0.05028429328726165 -0.1999879853816376  0.528782031817782 0.0478514030450814 -0.2012401677343649  0.553795343647017 0.04459204195374397 -0.2025330169342566  0.460646004208466 0.08169143427859631 -0.1980068822172976  0.4842706104957312 0.07804718043187885 -0.1989756007683268  0.5083927412159063 0.07483596022659907 -0.200040329599051  0.5328934840000061 0.07150391611380896 -0.2011565891570839  0.5575428708811935 0.06735981858414966 -0.2022857099435536  0.4658183399035034 0.1071930602633906 -0.1983693136034288  0.4894069355962395 0.1028574852302413 -0.1991962572710525  0.5134551415488182 0.09895554558117324 -0.2000847346408312  0.5377812357697632 0.09493642439856957 -0.2009925919570486  0.5621233719465124 0.09019056015075276 -0.2018919571930175  0.4713739661157423 0.1319993876967603 -0.1987765694241693  0.4949864682638913 0.1271961437231159 -0.199433833274012  0.5189636163605594 0.1227908743942383 -0.2001267391303657  0.5431330031086378 0.1182901205336963 -0.2008227078362795  0.5672469584529611 0.1131994129595598 -0.2015011515804814  0.477029901719297 0.1562967723502276 -0.1991518230837586  0.5007069899891546 0.1512341430392423 -0.1996530115877501  0.524637731618797 0.1464982157284768 -0.2001715083290076  0.5486846652566967 0.1416966057967704 -0.2006865567629261  0.5726533014103222 0.1364696389033895 -0.2011872151239715  0.482563523267974 0.1802884529389557 -0.1994471170108797  0.506330341906264 0.1751278351775174 -0.1998401251236826  0.5302431745280075 0.1702087861563497 -0.2002209508008073  0.5542073650589119 0.1652560789666692 -0.2005981605250449  0.578096689994183 0.1600348165006828 -0.2009876537076761  0.4878727321339139 0.2041516018514812 -0.1996612488194527  0.5116404727791967 0.1990122743061405 -0.2000060284349342  0.5355322556703774 0.1940417748098445 -0.2002661519565188  0.5595075644084148 0.1890241818335581 -0.2005272290310086  0.5834083937805777 0.1838225221322272 -0.2008845268149686  0.45 0 -0.175  0.475 0 -0.175  0.5 0 -0.175  0.525 0 -0.175  0.55 0 -0.175  0.4534870260334174 0.02781113833396644 -0.173887223068686  0.4772685904079148 0.02624189726411073 -0.1743793036237531  0.5016578322294983 0.02517917039429186 -0.1749892405833623  0.5266157174464219 0.02407433884739517 -0.1756703139720958  0.5523384051758728 0.02208005524822108 -0.1763544797621879  0.4569711574708458 0.05507120867230729 -0.1735489747037654  0.4806916453505075 0.05235484597476648 -0.1742340176843196  0.504946676393628 0.05006572402641034 -0.1750447819836939  0.5297099391209719 0.04765733649039802 -0.1759078572196469  0.5549067498906444 0.04435420450712561 -0.1767372809053104  0.4614131513810003 0.08146153890348712 -0.173590026697213  0.4850837522606899 0.0778094644762151 -0.1742910676346506  0.5092296731478757 0.0745338287417085 -0.1750827186777055  0.5337528034242091 0.07111193539939852 -0.1759049872565542  0.5584673832754132 0.06690999724130926 -0.1767084391170083  0.466530646221766 0.1070078749458257 -0.1737915706059573  0.4901558912492332 0.1026453849620311 -0.1744274965557834  0.5141927638991221 0.09863937339623473 -0.1751129579956729  0.5384951161657167 0.09450103780304731 -0.1758136460511169  0.5628421121037167 0.08971522396020704 -0.1765065406002312  0.4719840920276155 0.1318580896018465 -0.1740461955791528  0.4956233321362615 0.1270212476697681 -0.1745876754970693  0.5195725207046969 0.1225061483018275 -0.1751453451881642  0.5436985361897602 0.1178919544015731 -0.1757087713785254  0.5677884119864446 0.1127769222792182 -0.1762730900861713  0.4775312554291989 0.1561932478797814 -0.1742922898152691  0.5012275382564693 0.1510950954918548 -0.1747429457475266  0.5251260993752027 0.1462609372623209 -0.1751845127163081  0.5491286994183838 0.1413633234671993 -0.1756269142956324  0.5730627507557352 0.1361176463927198 -0.1760813827343919  0.482989216025002 0.180207758213782 -0.1744938289636009  0.5067609945077201 0.1750164774822764 -0.1748791733389507  0.5306387761888522 0.1700137764625523 -0.1752301211627889  0.5545687759588791 0.1649767470316772 -0.1755800677179104  0.5784309932711208 0.1597300581466085 -0.1759625184774948  0.488276683883868 0.2040887741684081 -0.1746490557490557  0.5120601752554125 0.1989174051795775 -0.1749957425098068  0.5359091201467719 0.1938554890377742 -0.1752741191458611  0.5598423865396812 0.1887502054711174 -0.1755551150681651  0.5837280797376014 0.1835194026143487 -0.1759030595968254  0.45 0 -0.15  0.475 0 -0.15  0.5 0 -0.15  0.525 0 -0.15  0.55 0 -0.15  0.4538323827372087 0.02778677185501782 -0.1494031928883828  0.4775066578824884 0.02617322322914425 -0.1496723593377003  0.5018763192621438 0.02514606151445443 -0.1500045411982172  0.5268860531881301 0.02406834039582846 -0.1503728429669602  0.5527517547010879 0.02191773233488148 -0.1507420108596199  0.4574470259003922 0.05494473962980849 -0.1491329676413174  0.4811041691681771 0.05222711861682688 -0.1495415809937641  0.5053628993564234 0.04997470026968419 -0.1500412429960598  0.5302021186927911 0.04758354081247917 -0.1505691380424086  0.5555244137690791 0.04418756759226892 -0.1510618795036822  0.4619342333505514 0.08128187691631901 -0.1491031957543982  0.48557898184204 0.07764483503433627 -0.1495587973943538  0.5097358086842652 0.07438249495818576 -0.1500820078092329  0.5343102402551547 0.07095584964372889 -0.1506250313469676  0.5591071779157913 0.06673638217142056 -0.1511458610172138  0.4670398309966278 0.1068044867416436 -0.1491928187082563  0.4906633626952872 0.1024631268187264 -0.1496383653330328  0.5147041453999296 0.09845005146161509 -0.1501185037105865  0.5390271293568364 0.09429589955991433 -0.1506108594532983  0.56341730945632 0.08953113200152196 -0.151096028684433  0.4724513623276265 0.1316571718745969 -0.1493305885278598  0.496100504406141 0.1268392397403125 -0.1497403303761717  0.5200457808003891 0.1223050331974097 -0.1501551511983139  0.5441701106521437 0.1176710389924284 -0.1505763543266126  0.5682742133366755 0.1125885612373193 -0.1510033819495956  0.4779539984638186 0.1560134007173516 -0.1494742109970295  0.5016620219763257 0.1509239944268971 -0.1498441599327115  0.5255513577282225 0.14606281781757 -0.1501958229465397  0.5495391839198056 0.141141794276909 -0.1505496171616913  0.5734665027420568 0.1359214279808771 -0.1509217762376549  0.4833907247373726 0.1800600267586597 -0.149598827893543  0.5071686470765211 0.1748575433869445 -0.1499402387600219  0.5310330378882014 0.1698187414835583 -0.1502406108981691  0.5549403645922497 0.1647512344997661 -0.1505406306516963  0.5787804818079232 0.1595100895774244 -0.150875055389341  0.4886989487872887 0.2039701061949397 -0.1497075625115121  0.5124863449104857 0.1987612835861067 -0.1500287572641064  0.5363209104826059 0.1936489979235356 -0.1502859312966597  0.5602176553080861 0.1885039072875839 -0.1505457826550994  0.5840609073253239 0.1832610486678899 -0.1508596342074191  0.45 0 -0.125  0.475 0 -0.125  0.5 0 -0.125  0.525 0 -0.125  0.55 0 -0.125  0.4539997140148307 0.02780680625771129 -0.1247175605375571  0.4776188029019063 0.02616179406154051 -0.1248450738506545  0.5019756105654253 0.02513401800142691 -0.1250060754814272  0.5270079356251353 0.02405292171671137 -0.1251888480955856  0.5529322387803994 0.02180502045593462 -0.1253804331107881  0.4577135090876051 0.05490864702559462 -0.1245683532772735  0.48132411115885 0.05217629115574592 -0.1247748313099652  0.5055800831722054 0.04993368734048068 -0.1250335722653423  0.5304555773866215 0.04753659870677348 -0.1253076125506251  0.5558266954504388 0.04406070257027069 -0.1255604613325631  0.4622519322888074 0.08118898478668866 -0.1245311047899314  0.48587150804788 0.07755277901569609 -0.1247803572844382  0.51003232766011 0.07430069432359017 -0.1250702018463823  0.5346362919472789 0.07087112577018526 -0.1253710163531321  0.5594671011193971 0.06661941796275757 -0.12565899381867  0.4673747803597476 0.1066737399383705 -0.1245600016751228  0.4909894195000603 0.1023399892224506 -0.124824540001317  0.5150335533550867 0.09833281029205576 -0.1251102665568294  0.5393720265269302 0.09417849427792183 -0.1254034872314938  0.5637808363695429 0.08941343287332036 -0.1256941361646415  0.4727834542494669 0.1315084282359786 -0.1246207548721005  0.4964327572720282 0.1266981926719423 -0.1248858630098293  0.520377194186644 0.1221637516669438 -0.1251529556454667  0.5445039137543666 0.1175290302104858 -0.1254243668148215  0.5686126246279392 0.112459025740719 -0.1257020838237022  0.4782789842020083 0.1558635865297683 -0.124691837180766  0.5019895289966063 0.150775294003286 -0.1249523776517793  0.5258734602097409 0.1459064548727378 -0.1251983099484554  0.5498535833863289 0.1409802693636158 -0.1254456237053257  0.5737731479977423 0.1357710737953783 -0.1257077242545129  0.4837193229229259 0.1799197476293811 -0.1247612318416353  0.5074976205037487 0.1747055674663875 -0.1250190948039422  0.5313520756527987 0.169650135798735 -0.1252450811324896  0.5552436328307688 0.1645701147561806 -0.12547033983259  0.5790646558304127 0.1593305715204507 -0.1257212467029695  0.4890501412015268 0.2038404045067687 -0.1248381561465428  0.5128349625354629 0.1986041403008908 -0.1250881507379693  0.5366558284467949 0.1934649309490152 -0.1252907570531588  0.5605277292834353 0.1882987822583085 -0.1254946435910054  0.5843388418058763 0.1830462501760433 -0.1257375989171055  0.45 0 -0.1  0.475 0 -0.1  0.5 0 -0.1  0.525 0 -0.1  0.55 0 -0.1  0.4540702427834373 0.02782014221970972 -0.09995050813435553  0.4776686210066033 0.02616340861326897 -0.0999803566088983  0.5020194633032087 0.02513138546647256 -0.1000069817208663  0.5270570284417643 0.02404442375505038 -0.1000445847387592  0.5529969128715577 0.02175052908257679 -0.1001022804688343  0.4578375224923028 0.05490692322389201 -0.099920082399063  0.4814272564231305 0.05216260501672246 -0.09996970175119733  0.5056796251371555 0.04991574971602155 -0.1000267065041228  0.5305638863481683 0.04750666734467 -0.1000890463059025  0.5559412428499854 0.04398481600668507 -0.1001519387584806  0.46241482118724 0.08115830679084082 -0.09990404482983806  0.4860177474785742 0.0775135992876014 -0.09997657383342405  0.5101762783609316 0.07425695909309762 -0.1000557213831853  0.534785606886671 0.07081521307678187 -0.1001388789406603  0.559615701006356 0.06653435716897416 -0.1002259615517541  0.4675622885214681 0.1066146685999938 -0.09990066509870343  0.4911645887073781 0.1022741511039757 -0.09999609681493646  0.5152050516008685 0.09826147743057838 -0.1000952149768136  0.5395433026377529 0.09409736874699549 -0.1001975809128199  0.5639467386531801 0.08931755477577925 -0.1003059045535157  0.4729855511170145 0.131426612197883 -0.09990785105007993  0.4966253386991317 0.1266094681558708 -0.100025655251469  0.5205634376010654 0.1220679656231464 -0.1001423584792228  0.5446846265811456 0.1174248355173745 -0.1002612309855941  0.5687842412327626 0.1123477880514942 -0.1003866427090682  0.4784915370791228 0.1557661043284002 -0.09992474623617156  0.5021934946396388 0.1506687351383075 -0.1000623736080388  0.5260682904825864 0.1457904212399027 -0.1001930190015072  0.5500385036229625 0.1408552186550995 -0.1003242332869362  0.573945566742231 0.1356407976706659 -0.1004630410780939  0.4839443191269726 0.1798120887570327 -0.09995193135150113  0.5077132482522159 0.1745848218710891 -0.1001053241769975  0.5315558120507833 0.1695168906799982 -0.1002428912137406  0.5554336780601723 0.1644256210956001 -0.1003795482610972  0.5792385900575686 0.1591786647630448 -0.1005279787046434  0.4892931992177159 0.203724145293711 -0.1000036578406824  0.5130665105533129 0.1984704062371264 -0.100157886166968  0.5368728999020086 0.193315341853727 -0.1002873366611047  0.5607274459764595 0.188134578339029 -0.1004170060618139  0.5845180452077445 0.1828704779172017 -0.1005670044031226  0.45 0 -0.07500000000000001  0.475 0 -0.07500000000000001  0.5 0 -0.07500000000000001  0.525 0 -0.07500000000000001  0.55 0 -0.07500000000000001  0.4540661155287041 0.02781945075385883 -0.07518119310958017  0.477675061971258 0.02616830059821076 -0.07511693727782162  0.5020250327374198 0.02513393935505466 -0.07500799623824146  0.5270539328149592 0.0240436430926743 -0.07489794708494331  0.5529743052356086 0.0217493012929008 -0.07481743785114295  0.4578433732554683 0.05492183117301721 -0.0752682455063015  0.4814373343552352 0.05217336603107089 -0.07516343215820952  0.5056852553241902 0.0499146682411622 -0.07501835848917141  0.5305552910643766 0.04749245377944093 -0.07486746127338804  0.5559051757831706 0.04396006534314565 -0.07473850816212407  0.4624399704596363 0.08117635353876568 -0.07527255482715997  0.4860367304400615 0.07751853675628216 -0.07517061025433674  0.510186379969564 0.07424368961137268 -0.07503916140618613  0.5347792162857627 0.07078175638241682 -0.07490380229297414  0.5595804058856563 0.06648153247479167 -0.07478916636382989  0.4676110717987153 0.1066209888968839 -0.07523628396317965  0.4911990307802862 0.1022621934701456 -0.07516440328134338  0.5152276275372948 0.09822960172824001 -0.07507724995881729  0.5395496446380742 0.0940433928248884 -0.07498844901228226  0.5639268370734014 0.08924021361664285 -0.07491394126472438  0.4730579282731635 0.131411241853911 -0.07518992555040341  0.496679209564675 0.1265744047542787 -0.07516150681035333  0.5206038933779692 0.1220144098127903 -0.07512819969470383  0.544710262510104 0.1173508440689331 -0.07509449919467892  0.568788297260979 0.1122507880074167 -0.07506707739179221  0.4785843739627059 0.1557244545550101 -0.07515346891485239  0.5022666846924791 0.1506092862622226 -0.07516826922227891  0.5261273887392599 0.1457154610590311 -0.07518384001860066  0.5500843362630032 0.1407631332999952 -0.07519895705366637  0.573974969276249 0.1355287462605888 -0.07521359659003045  0.4840530933848281 0.1797438986420994 -0.07513935314978645  0.5078022976487313 0.1745030451485836 -0.0751873217710886  0.5316302992247356 0.169423359563406 -0.07523663973743298  0.5554962215517931 0.1643185175295334 -0.07528484401721972  0.5792893500956013 0.1590550103600188 -0.07532939274804931  0.4894140855304408 0.2036308956503844 -0.07516495761949321  0.5131663067954856 0.1983693963169832 -0.07522237154759411  0.5369577178516269 0.1932069075958103 -0.07527988992481803  0.5608021496709709 0.1880154994258444 -0.07533670235160285  0.5845851574421211 0.1827366202607094 -0.07539229078614634  0.45 0 -0.04999999999999999  0.475 0 -0.04999999999999999  0.5 0 -0.04999999999999999  0.525 0 -0.04999999999999999  0.55 0 -0.04999999999999999  0.4539714992043287 0.02781189698800803 -0.05048636692973557  0.4776254626891975 0.02618341483209093 -0.05029122540262328  0.5019786234161029 0.02514472068208453 -0.05000715741916921  0.5269802912382077 0.02405188215553464 -0.04970639273371782  0.5528369826255377 0.02180864400774625 -0.04943381175579087  0.4577116361039324 0.05496756333423222 -0.05069213111154275  0.4813341724444726 0.05221933413044641 -0.05039236051260663  0.5055760703328409 0.04993805809429597 -0.05000577005455646  0.5304045851769055 0.04750039517084987 -0.04959782000580555  0.5556853226465845 0.04399174207519817 -0.0492226756027031  0.4623107502998425 0.08125290032131995 -0.05068647022601329  0.4859094687456799 0.07757518818414523 -0.05038484763306462  0.5100456257224601 0.0742715469478466 -0.05002016231706971  0.5346007782257696 0.07078485420036298 -0.04964062102329762  0.5593406987170034 0.06647036570963627 -0.04928918313015657  0.467509843475237 0.106695899946835 -0.0505870691705816  0.4910797518396319 0.1023070054362782 -0.050339525836569  0.5150926504012094 0.09824747933763324 -0.05005912538025601  0.5393869435165766 0.09403393668108742 -0.04977074175635909  0.563716577146232 0.08919527888902634 -0.04949929146189323  0.4729951503620967 0.1314600730588984 -0.05046358433526022  0.4965884289759172 0.1265917820270787 -0.05029402502582209  0.5204978445925544 0.1220106039598266 -0.05011451830644424  0.5445859404974552 0.1173227721368615 -0.04993151855496426  0.5686315175310519 0.1121823382603753 -0.04975303019150919  0.4785571266507689 0.1557332106887095 -0.05035744830119652  0.502209396964746 0.1505931555474742 -0.05026350229812025  0.5260560452736274 0.145686010153741 -0.0501744652477167  0.5500018733383804 0.1407162379128955 -0.05008372058805208  0.5738744034880301 0.1354477374141257 -0.04998601046274525  0.4840481016252027 0.1797087333930999 -0.0502915845965845  0.5077692511021914 0.1744559032848628 -0.05025332507019955  0.5315843122537982 0.1693723448846431 -0.05022924307969067  0.5554445653208877 0.1642587013667742 -0.05020355678224584  0.5792323672097878 0.1589723319330004 -0.05016091394821229  0.4894146466178467 0.2035559968544809 -0.05028317673844032  0.5131382774883173 0.198299596581107 -0.05026579206217088  0.5369173616985923 0.1931443389394059 -0.05027294003234278  0.5607630382595202 0.1879521889480876 -0.05027822548622216  0.5845538387627026 0.1826591509365867 -0.05025886816311243  0.45 0 -0.02499999999999999  0.475 0 -0.02499999999999999  0.5 0 -0.02499999999999999  0.525 0 -0.02499999999999999  0.55 0 -0.02499999999999999  0.4537252749865399 0.02784177253555048 -0.02597421074239061  0.4774629238045636 0.02624747144709954 -0.02556130987957313  0.501812259447017 0.02517835480558895 -0.02500944065860871  0.5267484605533657 0.02405957359944037 -0.02440996542420906  0.5524707172834193 0.02193521534976951 -0.02381635646694878  0.457372989070497 0.05509217712107609 -0.02626057329995853  0.4810411546529175 0.05233778729650361 -0.02569431605874536  0.505270983715712 0.05001748814711696 -0.02499445265947719  0.5300209900861438 0.04755711191977373 -0.02424531658948615  0.5551624269189264 0.04409454967480422 -0.02351313312717238  0.4619718633631351 0.08140633848422506 -0.02617657382240549  0.4855736534134737 0.07769962268608291 -0.02563712172584399  0.5096966970411296 0.07437727588896732 -0.02500353881847781  0.5342021760089165 0.07088350199006554 -0.02434184660816614  0.5588389986219913 0.06654717801246363 -0.02369501481081359  0.4672223855282785 0.1068332293941977 -0.02595866289651838  0.4907684284812389 0.1024059570333857 -0.02552760927364046  0.5147743258582255 0.0983448676957414 -0.02504352282569277  0.5390481885809423 0.09413247578837634 -0.02454792387909979  0.5633124605186474 0.0892417159958732 -0.02406316721843403  0.4727817645923253 0.1315506460840197 -0.02571769630646993  0.4963393400331194 0.1266459627321697 -0.02542175284436994  0.5202459284153851 0.1220738114439936 -0.02510209487507579  0.5443318319255076 0.1173909845421164 -0.02477955395652411  0.5683419677545262 0.1121938525494015 -0.0244612666924701  0.4784143445012967 0.1557635129515018 -0.02551391552314517  0.5020295065210671 0.1505980199410217 -0.0253414477302004  0.5258746399024695 0.1457070374514801 -0.02516489718966453  0.5498270846466096 0.1407464550251834 -0.02498822980836152  0.573687008383386 0.135433471049041 -0.02480629653341295  0.4839484090089164 0.1796772066135237 -0.0253793852774898  0.5076388325956275 0.1744194623552261 -0.02529316569691591  0.5314525352414241 0.1693600744646287 -0.02522077126890109  0.555323776600631 0.164263026324826 -0.02514803611721938  0.5791165320957453 0.1589545358501956 -0.02505377736447601  0.4893176196269571 0.2034752778319443 -0.02532336238256307  0.5130110461557518 0.1982413730679266 -0.02527273916047491  0.5367857961235586 0.1931236542052803 -0.02526603693082503  0.5606522665059231 0.1879562557385636 -0.02525730462633355  0.5844686270676683 0.1826585130947913 -0.02520016629565764  0.45 0 0  0.475 0 0  0.5 0 0  0.525 0 0  0.55 0 0  0.4531941099241633 0.02809563861489486 -0.001744379722649636  0.4769844806757713 0.02655309376645472 -0.001002676695314306  0.5012513697138102 0.0253205094443474 -6.145518713411052e-05  0.5260791219057369 0.0240155094769247 0.001033301564245049  0.5514543118760322 0.02186636600966555 0.002212797609481679  0.4567431546963752 0.05532884173859112 -0.001956596432822428  0.4803653448317241 0.05258097466185712 -0.00106375633080701  0.504547006078613 0.05024755829579001 -1.635568133187407e-05  0.5292349876120132 0.04780386176434363 0.001125640331258029  0.5541769362309894 0.04438376368474299 0.002334226350360948  0.4613406222556493 0.08157328213877139 -0.001716510339836163  0.4848914351230398 0.07788310148641285 -0.0009094951933974007  0.5090152488062945 0.07464098761742735 8.00411067740508e-08  0.5335349846409044 0.07126205023862334 0.0009471212686856662  0.5581036328299311 0.06697506700936891 0.001915608147526302  0.4666808695563723 0.1069139447173682 -0.001327815815614589  0.4901849125920328 0.1025136766277624 -0.0007106044156531526  0.5142266155621291 0.09857150395275859 -2.576594851691575e-05  0.5385571713156666 0.09449322622030763 0.0006657706043175492  0.5628197396893657 0.08963285223481077 0.001348786302677653  0.4723788831203742 0.1315449005124027 -0.0009360038510393  0.4959015050661961 0.126674113399636 -0.0005307858646407205  0.5198535969646946 0.1222236012997884 -8.035292586759596e-05  0.5440070920481099 0.1176607148554144 0.0003651049906776247  0.5680434773308456 0.1124765627618374 0.000789668884773985  0.4781563222965935 0.1556920082564903 -0.0006119639352048358  0.5017391411944756 0.1505587787891523 -0.0003942490374138828  0.5256230302233035 0.1457739708476889 -0.000145576802150143  0.5496328352150266 0.1409090603509186 9.736192348980472e-05  0.5735268937826286 0.135599296955398 0.0003197478842840159  0.483798248691353 0.1795637726702093 -0.0003938310802867814  0.507461737747484 0.174337562973768 -0.0003044114085835801  0.5313060243265335 0.1693639276002672 -0.0002059371778375369  0.5552140806359696 0.1643437822203563 -0.0001090032779134663  0.579033169817487 0.1590396765117979 -1.00986256853186e-05  0.4891842151994979 0.2033405762918889 -0.000282840705610905  0.5128685550061467 0.1981354117640362 -0.0002354242513313066  0.5366695466694532 0.1931016594825301 -0.0002518295320213277  0.5605652914060028 0.1880179949369607 -0.0002693761038751231  0.5844000809610872 0.182734789151965 -0.0002081395261335265  </DataArray>
</Points>
<Cells>
<DataArray  type="UInt32"  Name="connectivity"  format="ascii">0 1 6 51  0 1 46 51  0 45 46 51  0 5 6 51  0 45 50 51  0 5 50 51  1 2 7 52  1 2 47 52  1 46 47 52  1 6 7 52  1 46 51 52  1 6 51 52  2 3 8 53  2 3 48 53  2 47 48 53  2 7 8 53  2 47 52 53  2 7 52 53  3 4 9 54  3 4 49 54  3 48 49 54  3 8 9 54  3 48 53 54  3 8 53 54  5 6 11 56  5 6 51 56  5 50 51 56  5 10 11 56  5 50 55 56  5 10 55 56  6 7 12 57  6 7 52 57  6 51 52 57  6 11 12 57  6 51 56 57  6 11 56 57  7 8 13 58  7 8 53 58  7 52 53 58  7 12 13 58  7 52 57 58  7 12 57 58  8 9 14 59  8 9 54 59  8 53 54 59  8 13 14 59  8 53 58 59  8 13 58 59  10 11 16 61  10 11 56 61  10 55 56 61  10 15 16 61  10 55 60 61  10 15 60 61  11 12 17 62  11 12 57 62  11 56 57 62  11 16 17 62  11 56 61 62  11 16 61 62  12 13 18 63  12 13 58 63  12 57 58 63  12 17 18 63  12 57 62 63  12 17 62 63  13 14 19 64  13 14 59 64  13 58 59 64  13 18 19 64  13 58 63 64  13 18 63 64  15 16 21 66  15 16 61 66  15 60 61 66  15 20 21 66  15 60 65 66  15 20 65 66  16 17 22 67  16 17 62 67  16 61 62 67  16 21 22 67  16 61 66 67  16 21 66 67  17 18 23 68  17 18 63 68  17 62 63 68  17 22 23 68  17 62 67 68  17 22 67 68  18 19 24 69  18 19 64 69  18 63 64 69  18 23 24 69  18 63 68 69  18 23 68 69  20 21 26 71  20 21 66 71  20 65 66 71  20 25 26 71  20 65 70 71  20 25 70 71  21 22 27 72  21 22 67 72  21 66 67 72  21 26 27 72  21 66 71 72  21 26 71 72  22 23 28 73  22 23 68 73  22 67 68 73  22 27 28 73  22 67 72 73  22 27 72 73  23 24 29 74  23 24 69 74  23 68 69 74  23 28 29 74  23 68 73 74  23 28 73 74  25 26 31 76  25 26 71 76  25 70 71 76  25 30 31 76  25 70 75 76  25 30 75 76  26 27 32 77  26 27 72 77  26 71 72 77  26 31 32 77  26 71 76 77  26 31 76 77  27 28 33 78  27 28 73 78  27 72 73 78  27 32 33 78  27 72 77 78  27 32 77 78  28 29 34 79  28 29 74 79  28 73 74 79  28 33 34 79  28 73 78 79  28 33 78 79  30 31 36 81  30 31 76 81  30 75 76 81  30 35 36 81  30 75 80 81  30 35 80 81  31 32 37 82  31 32 77 82  31 76 77 82  31 36 37 82  31 76 81 82  31 36 81 82  32 33 38 83  32 33 78 83  32 77 78 83  32 37 38 83  32 77 82 83  32 37 82 83  33 34 39 84  33 34 79 84  33 78 79 84  33 38 39 84  33 78 83 84  33 38 83 84  35 36 41 86  35 36 81 86  35 80 81 86  35 40 41 86  35 80 85 86  35 40 85 86  36 37 42 87  36 37 82 87  36 81 82 87  36 41 42 87  36 81 86 87  36 41 86 87  37 38 43 88  37 38 83 88  37 82 83 88  37 42 43 88  37 82 87 88  37 42 87 88  38 39 44 89  38 39 84 89  38 83 84 89  38 43 44 89  38 83 88 89  38 43 88 89  45 46 51 96  45 46 91 96  45 90 91 96  45 50 51 96  45 90 95 96  45 50 95 96  46 47 52 97  46 47 92 97  46 91 92 97  46 51 52 97  46 91 96 97  46 51 96 97  47 48 53 98  47 48 93 98  47 92 93 98  47 52 53 98  47 92 97 98  47 52 97 98  48 49 54 99  48 49 94 99  48 93 94 99  48 53 54 99  48 93 98 99  48 53 98 99  50 51 56 101  50 51 96 101  50 95 96 101  50 55 56 101  50 95 100 101  50 55 100 101  51 52 57 102  51 52 97 102  51 96 97 102  51 56 57 102  51 96 101 102  51 56 101 102  52 53 58 103  52 53 98 103  52 97 98 103  52 57 58 103  52 97 102 103  52 57 102 103  53 54 59 104  53 54 99 104  53 98 99 104  53 58 59 104  53 98 103 104  53 58 103 104  55 56 61 106  55 56 101 106  55 100 101 106  55 60 61 106  55 100 105 106  55 60 105 106  56 57 62 107  56 57 102 107  56 101 102 107  56 61 62 107  56 101 106 107  56 61 106 107  57 58 63 108  57 58 103 108  57 102 103 108  57 62 63 108  57 102 107 108  57 62 107 108  58 59 64 109  58 59 104 109  58 103 104 109  58 63 64 109  58 103 108 109  58 63 108 109  60 61 66 111  60 61 106 111  60 105 106 111  60 65 66 111  60 105 110 111  60 65 110 111  61 62 67 112  61 62 107 112  61 106 107 112  61 66 67 112  61 106 111 112  61 66 111 112  62 63 68 113  62 63 108 113  62 107 108 113  62 67 68 113  62 107 112 113  62 67 112 113  63 64 69 114  63 64 109 114  63 108 109 114  63 68 69 114  63 108 113 114  63 68 113 114  65 66 71 116  65 66 111 116  65 110 111 116  65 70 71 116  65 110 115 116  65 70 115 116  66 67 72 117  66 67 112 117  66 111 112 117  66 71 72 117  66 111 116 117  66 71 116 117  67 68 73 118  67 68 113 118  67 112 113 118  67 72 73 118  67 112 117 118  67 72 117 118  68 69 74 119  68 69 114 119  68 113 114 119  68 73 74 119  68 113 118 119  68 73 118 119  70 71 76 121  70 71 116 121  70 115 116 121  70 75 76 121  70 115 120 121  70 75 120 121  71 72 77 122  71 72 117 122  71 116 117 122  71 76 77 122  71 116 121 122  71 76 121 122  72 73 78 123  72 73 118 123  72 117 118 123  72 77 78 123  72 117 122 123  72 77 122 123  73 74 79 124  73 74 119 124  73 118 119 124  73 78 79 124  73 118 123 124  73 78 123 124  75 76 81 126  75 76 121 126  75 120 121 126  75 80 81 126  75 120 125 126  75 80 125 126  76 77 82 127  76 77 122 127  76 121 122 127  76 81 82 127  76 121 126 127  76 81 126 127  77 78 83 128  77 78 123 128  77 122 123 128  77 82 83 128  77 122 127 128  77 82 127 128  78 79 84 129  78 79 124 129  78 123 124 129  78 83 84 129  78 123 128 129  78 83 128 129  80 81 86 131  80 81 126 131  80 125 126 131  80 85 86 131  80 125 130 131  80 85 130 131  81 82 87 132  81 82 127 132  81 126 127 132  81 86 87 132  81 126 131 132  81 86 131 132  82 83 88 133  82 83 128 133  82 127 128 133  82 87 88 133  82 127 132 133  82 87 132 133  83 84 89 134  83 84 129 134  83 128 129 134  83 88 89 134  83 128 133 134  83 88 133 134  90 91 96 141  90 91 136 141  90 135 136 141  90 95 96 141  90 135 140 141  90 95 140 141  91 92 97 142  91 92 137 142  91 136 137 142  91 96 97 142  91 136 141 142  91 96 141 142  92 93 98 143  92 93 138 143  92 137 138 143  92 97 98 143  92 137 142 143  92 97 142 143  93 94 99 144  93 94 139 144  93 138 139 144  93 98 99 144  93 138 143 144  93 98 143 144  95 96 101 146  95 96 141 146  95 140 141 146  95 100 101 146  95 140 145 146  95 100 145 146  96 97 102 147  96 97 142 147  96 141 142 147  96 101 102 147  96 141 146 147  96 101 146 147  97 98 103 148  97 98 143 148  97 142 143 148  97 102 103 148  97 142 147 148  97 102 147 148  98 99 104 149  98 99 144 149  98 143 144 149  98 103 104 149  98 143 148 149  98 103 148 149  100 101 106 151  100 101 146 151  100 145 146 151  100 105 106 151  100 145 150 151  100 105 150 151  101 102 107 152  101 102 147 152  101 146 147 152  101 106 107 152  101 146 151 152  101 106 151 152  102 103 108 153  102 103 148 153  102 147 148 153  102 107 108 153  102 147 152 153  102 107 152 153  103 104 109 154  103 104 149 154  103 148 149 154  103 108 109 154  103 148 153 154  103 108 153 154  105 106 111 156  105 106 151 156  105 150 151 156  105 110 111 156  105 150 155 156  105 110 155 156  106 107 112 157  106 107 152 157  106 151 152 157  106 111 112 157  106 151 156 157  106 111 156 157  107 108 113 158  107 108 153 158  107 152 153 158  107 112 113 158  107 152 157 158  107 112 157 158  108 109 114 159  108 109 154 159  108 153 154 159  108 113 114 159  108 153 158 159  108 113 158 159  110 111 116 161  110 111 156 161  110 155 156 161  110 115 116 161  110 155 160 161  110 115 160 161  111 112 117 162  111 112 157 162  111 156 157 162  111 116 117 162  111 156 161 162  111 116 161 162  112 113 118 163  112 113 158 163  112 157 158 163  112 117 118 163  112 157 162 163  112 117 162 163  113 114 119 164  113 114 159 164  113 158 159 164  113 118 119 164  113 158 163 164  113 118 163 164  115 116 121 166  115 116 161 166  115 160 161 166  115 120 121 166  115 160 165 166  115 120 165 166  116 117 122 167  116 117 162 167  116 161 162 167  116 121 122 167  116 161 166 167  116 121 166 167  117 118 123 168  117 118 163 168  117 162 163 168  117 122 123 168  117 162 167 168  117 122 167 168  118 119 124 169  118 119 164 169  118 163 164 169  118 123 124 169  118 163 168 169  118 123 168 169  120 121 126 171  120 121 166 171  120 165 166 171  120 125 126 171  120 165 170 171  120 125 170 171  121 122 127 172  121 122 167 172  121 166 167 172  121 126 127 172  121 166 171 172  121 126 171 172  122 123 128 173  122 123 168 173  122 167 168 173  122 127 128 173  122 167 172 173  122 127 172 173  123 124 129 174  123 124 169 174  123 168 169 174  123 128 129 174  123 168 173 174  123 128 173 174  125 126 131 176  125 126 171 176  125 170 171 176  125 130 131 176  125 170 175 176  125 130 175 176  126 127 132 177  126 127 172 177  126 171 172 177  126 131 132 177  126 171 176 177  126 131 176 177  127 128 133 178  127 128 173 178  127 172 173 178  127 132 133 178  127 172 177 178  127 132 177 178  128 129 134 179  128 129 174 179  128 173 174 179  128 133 134 179  128 173 178 179  128 133 178 179  135 136 141 186  135 136 181 186  135 180 181 186  135 140 141 186  135 180 185 186  135 140 185 186  136 137 142 187  136 137 182 187  136 181 182 187  136 141 142 187  136 181 186 187  136 141 186 187  137 138 143 188  137 138 183 188  137 182 183 188  137 142 143 188  137 182 187 188  137 142 187 188  138 139 144 189  138 139 184 189  138 183 184 189  138 143 144 189  138 183 188 189  138 143 188 189  140 141 146 191  140 141 186 191  140 185 186 191  140 145 146 191  140 185 190 191  140 145 190 191  141 142 147 192  141 142 187 192  141 186 187 192  141 146 147 192  141 186 191 192  141 146 191 192  142 143 148 193  142 143 188 193  142 187 188 193  142 147 148 193  142 187 192 193  142 147 192 193  143 144 149 194  143 144 189 194  143 188 189 194  143 148 149 194  143 188 193 194  143 148 193 194  145 146 151 196  145 146 191 196  145 190 191 196  145 150 151 196  145 190 195 196  145 150 195 196  146 147 152 197  146 147 192 197  146 191 192 197  146 151 152 197  146 191 196 197  146 151 196 197  147 148 153 198  147 148 193 198  147 192 193 198  147 152 153 198  147 192 197 198  147 152 197 198  148 149 154 199  148 149 194 199  148 193 194 199  148 153 154 199  148 193 198 199  148 153 198 199  150 151 156 201  150 151 196 201  150 195 196 201  150 155 156 201  150 195 200 201  150 155 200 201  151 152 157 202  151 152 197 202  151 196 197 202  151 156 157 202  151 196 201 202  151 156 201 202  152 153 158 203  152 153 198 203  152 197 198 203  152 157 158 203  152 197 202 203  152 157 202 203  153 154 159 204  153 154 199 204  153 198 199 204  153 158 159 204  153 198 203 204  153 158 203 204  155 156 161 206  155 156 201 206  155 200 201 206  155 160 161 206  155 200 205 206  155 160 205 206  156 157 162 207  156 157 202 207  156 201 202 207  156 161 162 207  156 201 206 207  156 161 206 207  157 158 163 208  157 158 203 208  157 202 203 208  157 162 163 208  157 202 207 208  157 162 207 208  158 159 164 209  158 159 204 209  158 203 204 209  158 163 164 209  158 203 208 209  158 163 208 209  160 161 166 211  160 161 206 211  160 205 206 211  160 165 166 211  160 205 210 211  160 165 210 211  161 162 167 212  161 162 207 212  161 206 207 212  161 166 167 212  161 206 211 212  161 166 211 212  162 163 168 213  162 163 208 213  162 207 208 213  162 167 168 213  162 207 212 213  162 167 212 213  163 164 169 214  163 164 209 214  163 208 209 214  163 168 169 214  163 208 213 214  163 168 213 214  165 166 171 216  165 166 211 216  165 210 211 216  165 170 171 216  165 210 215 216  165 170 215 216  166 167 172 217  166 167 212 217  166 211 212 217  166 171 172 217  166 211 216 217  166 171 216 217  167 168 173 218  167 168 213 218  167 212 213 218  167 172 173 218  167 212 217 218  167 172 217 218  168 169 174 219  168 169 214 219  168 213 214 219  168 173 174 219  168 213 218 219  168 173 218 219  170 171 176 221  170 171 216 221  170 215 216 221  170 175 176 221  170 215 220 221  170 175 220 221  171 172 177 222  171 172 217 222  171 216 217 222  171 176 177 222  171 216 221 222  171 176 221 222  172 173 178 223  172 173 218 223  172 217 218 223  172 177 178 223  172 217 222 223  172 177 222 223  173 174 179 224  173 174 219 224  173 218 219 224  173 178 179 224  173 218 223 224  173 178 223 224  180 181 186 231  180 181 226 231  180 225 226 231  180 185 186 231  180 225 230 231  180 185 230 231  181 182 187 232  181 182 227 232  181 226 227 232  181 186 187 232  181 226 231 232  181 186 231 232  182 183 188 233  182 183 228 233  182 227 228 233  182 187 188 233  182 227 232 233  182 187 232 233  183 184 189 234  183 184 229 234  183 228 229 234  183 188 189 234  183 228 233 234  183 188 233 234  185 186 191 236  185 186 231 236  185 230 231 236  185 190 191 236  185 230 235 236  185 190 235 236  186 187 192 237  186 187 232 237  186 231 232 237  186 191 192 237  186 231 236 237  186 191 236 237  187 188 193 238  187 188 233 238  187 232 233 238  187 192 193 238  187 232 237 238  187 192 237 238  188 189 194 239  188 189 234 239  188 233 234 239  188 193 194 239  188 233 238 239  188 193 238 239  190 191 196 241  190 191 236 241  190 235 236 241  190 195 196 241  190 235 240 241  190 195 240 241  191 192 197 242  191 192 237 242  191 236 237 242  191 196 197 242  191 236 241 242  191 196 241 242  192 193 198 243  192 193 238 243  192 237 238 243  192 197 198 243  192 237 242 243  192 197 242 243  193 194 199 244  193 194 239 244  193 238 239 244  193 198 199 244  193 238 243 244  193 198 243 244  195 196 201 246  195 196 241 246  195 240 241 246  195 200 201 246  195 240 245 246  195 200 245 246  196 197 202 247  196 197 242 247  196 241 242 247  196 201 202 247  196 241 246 247  196 201 246 247  197 198 203 248  197 198 243 248  197 242 243 248  197 202 203 248  197 242 247 248  197 202 247 248  198 199 204 249  198 199 244 249  198 243 244 249  198 203 204 249  198 243 248 249  198 203 248 249  200 201 206 251  200 201 246 251  200 245 246 251  200 205 206 251  200 245 250 251  200 205 250 251  201 202 207 252  201 202 247 252  201 246 247 252  201 206 207 252  201 246 251 252  201 206 251 252  202 203 208 253  202 203 248 253  202 247 248 253  202 207 208 253  202 247 252 253  202 207 252 253  203 204 209 254  203 204 249 254  203 248 249 254  203 208 209 254  203 248 253 254  203 208 253 254  205 206 211 256  205 206 251 256  205 250 251 256  205 210 211 256  205 250 255 256  205 210 255 256  206 207 212 257  206 207 252 257  206 251 252 257  206 211 212 257  206 251 256 257  206 211 256 257  207 208 213 258  207 208 253 258  207 252 253 258  207 212 213 258  207 252 257 258  207 212 257 258  208 209 214 259  208 209 254 259  208 253 254 259  208 213 214 259  208 253 258 259  208 213 258 259  210 211 216 261  210 211 256 261  210 255 256 261  210 215 216 261  210 255 260 261  210 215 260 261  211 212 217 262  211 212 257 262  211 256 257 262  211 216 217 262  211 256 261 262  211 216 261 262  212 213 218 263  212 213 258 263  212 257 258 263  212 217 218 263  212 257 262 263  212 217 262 263  213 214 219 264  213 214 259 264  213 258 259 264  213 218 219 264  213 258 263 264  213 218 263 264  215 216 221 266  215 216 261 266  215 260 261 266  215 220 221 266  215 260 265 266  215 220 265 266  216 217 222 267  216 217 262 267  216 261 262 267  216 221 222 267  216 261 266 267  216 221 266 267  217 218 223 268  217 218 263 268  217 262 263 268  217 222 223 268  217 262 267 268  217 222 267 268  218 219 224 269  218 219 264 269  218 263 264 269  218 223 224 269  218 263 268 269  218 223 268 269  225 226 231 276  225 226 271 276  225 270 271 276  225 230 231 276  225 270 275 276  225 230 275 276  226 227 232 277  226 227 272 277  226 271 272 277  226 231 232 277  226 271 276 277  226 231 276 277  227 228 233 278  227 228 273 278  227 272 273 278  227 232 233 278  227 272 277 278  227 232 277 278  228 229 234 279  228 229 274 279  228 273 274 279  228 233 234 279  228 273 278 279  228 233 278 279  230 231 236 281  230 231 276 281  230 275 276 281  230 235 236 281  230 275 280 281  230 235 280 281  231 232 237 282  231 232 277 282  231 276 277 282  231 236 237 282  231 276 281 282  231 236 281 282  232 233 238 283  232 233 278 283  232 277 278 283  232 237 238 283  232 277 282 283  232 237 282 283  233 234 239 284  233 234 279 284  233 278 279 284  233 238 239 284  233 278 283 284  233 238 283 284  235 236 241 286  235 236 281 286  235 280 281 286  235 240 241 286  235 280 285 286  235 240 285 286  236 237 242 287  236 237 282 287  236 281 282 287  236 241 242 287  236 281 286 287  236 241 286 287  237 238 243 288  237 238 283 288  237 282 283 288  237 242 243 288  237 282 287 288  237 242 287 288  238 239 244 289  238 239 284 289  238 283 284 289  238 243 244 289  238 283 288 289  238 243 288 289  240 241 246 291  240 241 286 291  240 285 286 291  240 245 246 291  240 285 290 291  240 245 290 291  241 242 247 292  241 242 287 292  241 286 287 292  241 246 247 292  241 286 291 292  241 246 291 292  242 243 248 293  242 243 288 293  242 287 288 293  242 247 248 293  242 287 292 293  242 247 292 293  243 244 249 294  243 244 289 294  243 288 289 294  243 248 249 294  243 288 293 294  243 248 293 294  245 246 251 296  245 246 291 296  245 290 291 296  245 250 251 296  245 290 295 296  245 250 295 296  246 247 252 297  246 247 292 297  246 291 292 297  246 251 252 297  246 291 296 297  246 251 296 297  247 248 253 298  247 248 293 298  247 292 293 298  247 252 253 298  247 292 297 298  247 252 297 298  248 249 254 299  248 249 294 299  248 293 294 299  248 253 254 299  248 293 298 299  248 253 298 299  250 251 256 301  250 251 296 301  250 295 296 301  250 255 256 301  250 295 300 301  250 255 300 301  251 252 257 302  251 252 297 302  251 296 297 302  251 256 257 302  251 296 301 302  251 256 301 302  252 253 258 303  252 253 298 303  252 297 298 303  252 257 258 303  252 297 302 303  252 257 302 303  253 254 259 304  253 254 299 304  253 298 299 304  253 258 259 304  253 298 303 304  253 258 303 304  255 256 261 306  255 256 301 306  255 300 301 306  255 260 261 306  255 300 305 306  255 260 305 306  256 257 262 307  256 257 302 307  256 301 302 307  256 261 262 307  256 301 306 307  256 261 306 307  257 258 263 308  257 258 303 308  257 302 303 308  257 262 263 308  257 302 307 308  257 262 307 308  258 259 264 309  258 259 304 309  258 303 304 309  258 263 264 309  258 303 308 309  258 263 308 309  260 261 266 311  260 261 306 311  260 305 306 311  260 265 266 311  260 305 310 311  260 265 310 311  261 262 267 312  261 262 307 312  261 306 307 312  261 266 267 312  261 306 311 312  261 266 311 312  262 263 268 313  262 263 308 313  262 307 308 313  262 267 268 313  262 307 312 313  262 267 312 313  263 264 269 314  263 264 309 314  263 308 309 314  263 268 269 314  263 308 313 314  263 268 313 314  270 271 276 321  270 271 316 321  270 315 316 321  270 275 276 321  270 315 320 321  270 275 320 321  271 272 277 322  271 272 317 322  271 316 317 322  271 276 277 322  271 316 321 322  271 276 321 322  272 273 278 323  272 273 318 323  272 317 318 323  272 277 278 323  272 317 322 323  272 277 322 323  273 274 279 324  273 274 319 324  273 318 319 324  273 278 279 324  273 318 323 324  273 278 323 324  275 276 281 326  275 276 321 326  275 320 321 326  275 280 281 326  275 320 325 326  275 280 325 326  276 277 282 327  276 277 322 327  276 321 322 327  276 281 282 327  276 321 326 327  276 281 326 327  277 278 283 328  277 278 323 328  277 322 323 328  277 282 283 328  277 322 327 328  277 282 327 328  278 279 284 329  278 279 324 329  278 323 324 329  278 283 284 329  278 323 328 329  278 283 328 329  280 281 286 331  280 281 326 331  280 325 326 331  280 285 286 331  280 325 330 331  280 285 330 331  281 282 287 332  281 282 327 332  281 326 327 332  281 286 287 332  281 326 331 332  281 286 331 332  282 283 288 333  282 283 328 333  282 327 328 333  282 287 288 333  282 327 332 333  282 287 332 333  283 284 289 334  283 284 329 334  283 328 329 334  283 288 289 334  283 328 333 334  283 288 333 334  285 286 291 336  285 286 331 336  285 330 331 336  285 290 291 336  285 330 335 336  285 290 335 336  286 287 292 337  286 287 332 337  286 331 332 337  286 291 292 337  286 331 336 337  286 291 336 337  287 288 293 338  287 288 333 338  287 332 333 338  287 292 293 338  287 332 337 338  287 292 337 338  288 289 294 339  288 289 334 339  288 333 334 339  288 293 294 339  288 333 338 339  288 293 338 339  290 291 296 341  290 291 336 341  290 335 336 341  290 295 296 341  290 335 340 341  290 295 340 341  291 292 297 342  291 292 337 342  291 336 337 342  291 296 297 342  291 336 341 342  291 296 341 342  292 293 298 343  292 293 338 343  292 337 338 343  292 297 298 343  292 337 342 343  292 297 342 343  293 294 299 344  293 294 339 344  293 338 339 344  293 298 299 344  293 338 343 344  293 298 343 344  295 296 301 346  295 296 341 346  295 340 341 346  295 300 301 346  295 340 345 346  295 300 345 346  296 297 302 347  296 297 342 347  296 341 342 347  296 301 302 347  296 341 346 347  296 301 346 347  297 298 303 348  297 298 343 348  297 342 343 348  297 302 303 348  297 342 347 348  297 302 347 348  298 299 304 349  298 299 344 349  298 343 344 349  298 303 304 349  298 343 348 349  298 303 348 349  300 301 306 351  300 301 346 351  300 345 346 351  300 305 306 351  300 345 350 351  300 305 350 351  301 302 307 352  301 302 347 352  301 346 347 352  301 306 307 352  301 346 351 352  301 306 351 352  302 303 308 353  302 303 348 353  302 347 348 353  302 307 308 353  302 347 352 353  302 307 352 353  303 304 309 354  303 304 349 354  303 348 349 354  303 308 309 354  303 348 353 354  303 308 353 354  305 306 311 356  305 306 351 356  305 350 351 356  305 310 311 356  305 350 355 356  305 310 355 356  306 307 312 357  306 307 352 357  306 351 352 357  306 311 312 357  306 351 356 357  306 311 356 357  307 308 313 358  307 308 353 358  307 352 353 358  307 312 313 358  307 352 357 358  307 312 357 358  308 309 314 359  308 309 354 359  308 353 354 359  308 313 314 359  308 353 358 359  308 313 358 359  315 316 321 366  315 316 361 366  315 360 361 366  315 320 321 366  315 360 365 366  315 320 365 366  316 317 322 367  316 317 362 367  316 361 362 367  316 321 322 367  316 361 366 367  316 321 366 367  317 318 323 368  317 318 363 368  317 362 363 368  317 322 323 368  317 362 367 368  317 322 367 368  318 319 324 369  318 319 364 369  318 363 364 369  318 323 324 369  318 363 368 369  318 323 368 369  320 321 326 371  320 321 366 371  320 365 366 371  320 325 326 371  320 365 370 371  320 325 370 371  321 322 327 372  321 322 367 372  321 366 367 372  321 326 327 372  321 366 371 372  321 326 371 372  322 323 328 373  322 323 368 373  322 367 368 373  322 327 328 373  322 367 372 373  322 327 372 373  323 324 329 374  323 324 369 374  323 368 369 374  323 328 329 374  323 368 373 374  323 328 373 374  325 326 331 376  325 326 371 376  325 370 371 376  325 330 331 376  325 370 375 376  325 330 375 376  326 327 332 377  326 327 372 377  326 371 372 377  326 331 332 377  326 371 376 377  326 331 376 377  327 328 333 378  327 328 373 378  327 372 373 378  327 332 333 378  327 372 377 378  327 332 377 378  328 329 334 379  328 329 374 379  328 373 374 379  328 333 334 379  328 373 378 379  328 333 378 379  330 331 336 381  330 331 376 381  330 375 376 381  330 335 336 381  330 375 380 381  330 335 380 381  331 332 337 382  331 332 377 382  331 376 377 382  331 336 337 382  331 376 381 382  331 336 381 382  332 333 338 383  332 333 378 383  332 377 378 383  332 337 338 383  332 377 382 383  332 337 382 383  333 334 339 384  333 334 379 384  333 378 379 384  333 338 339 384  333 378 383 384  333 338 383 384  335 336 341 386  335 336 381 386  335 380 381 386  335 340 341 386  335 380 385 386  335 340 385 386  336 337 342 387  336 337 382 387  336 381 382 387  336 341 342 387  336 381 386 387  336 341 386 387  337 338 343 388  337 338 383 388  337 382 383 388  337 342 343 388  337 382 387 388  337 342 387 388  338 339 344 389  338 339 384 389  338 383 384 389  338 343 344 389  338 383 388 389  338 343 388 389  340 341 346 391  340 341 386 391  340 385 386 391  340 345 346 391  340 385 390 391  340 345 390 391  341 342 347 392  341 342 387 392  341 386 387 392  341 346 347 392  341 386 391 392  341 346 391 392  342 343 348 393  342 343 388 393  342 387 388 393  342 347 348 393  342 387 392 393  342 347 392 393  343 344 349 394  343 344 389 394  343 388 389 394  343 348 349 394  343 388 393 394  343 348 393 394  345 346 351 396  345 346 391 396  345 390 391 396  345 350 351 396  345 390 395 396  345 350 395 396  346 347 352 397  346 347 392 397  346 391 392 397  346 351 352 397  346 391 396 397  346 351 396 397  347 348 353 398  347 348 393 398  347 392 393 398  347 352 353 398  347 392 397 398  347 352 397 398  348 349 354 399  348 349 394 399  348 393 394 399  348 353 354 399  348 393 398 399  348 353 398 399  350 351 356 401  350 351 396 401  350 395 396 401  350 355 356 401  350 395 400 401  350 355 400 401  351 352 357 402  351 352 397 402  351 396 397 402  351 356 357 402  351 396 401 402  351 356 401 402  352 353 358 403  352 353 398 403  352 397 398 403  352 357 358 403  352 397 402 403  352 357 402 403  353 354 359 404  353 354 399 404  353 398 399 404  353 358 359 404  353 398 403 404  353 358 403 404  </DataArray>
<DataArray  type="UInt32"  Name="offsets"  format="ascii">4 8 12 16 20 24 28 32 36 40 44 48 52 56 60 64 68 72 76 80 84 88 92 96 100 104 108 112 116 120 124 128 132 136 140 144 148 152 156 160 164 168 172 176 180 184 188 192 196 200 204 208 212 216 220 224 228 232 236 240 244 248 252 256 260 264 268 272 276 280 284 288 292 296 300 304 308 312 316 320 324 328 332 336 340 344 348 352 356 360 364 368 372 376 380 384 388 392 396 400 404 408 412 416 420 424 428 432 436 440 444 448 452 456 460 464 468 472 476 480 484 488 492 496 500 504 508 512 516 520 524 528 532 536 540 544 548 552 556 560 564 568 572 576 580 584 588 592 596 600 604 608 612 616 620 624 628 632 636 640 644 648 652 656 660 664 668 672 676 680 684 688 692 696 700 704 708 712 716 720 724 728 732 736 740 744 748 752 756 760 764 768 772 776 780 784 788 792 796 800 804 808 812 816 820 824 828 832 836 840 844 848 852 856 860 864 868 872 876 880 884 888 892 896 900 904 908 912 916 920 924 928 932 936 940 944 948 952 956 960 964 968 972 976 980 984 988 992 996 1000 1004 1008 1012 1016 1020 1024 1028 1032 1036 1040 1044 1048 1052 1056 1060 1064 1068 1072 1076 1080 1084 1088 1092 1096 1100 1104 1108 1112 1116 1120 1124 1128 1132 1136 1140 1144 1148 1152 1156 1160 1164 1168 1172 1176 1180 1184 1188 1192 1196 1200 1204 1208 1212 1216 1220 1224 1228 1232 1236 1240 1244 1248 1252 1256 1260 1264 1268 1272 1276 1280 1284 1288 1292 1296 1300 1304 1308 1312 1316 1320 1324 1328 1332 1336 1340 1344 1348 1352 1356 1360 1364 1368 1372 1376 1380 1384 1388 1392 1396 1400 1404 1408 1412 1416 1420 1424 1428 1432 1436 1440 1444 1448 1452 1456 1460 1464 1468 1472 1476 1480 1484 1488 1492 1496 1500 1504 1508 1512 1516 1520 1524 1528 1532 1536 1540 1544 1548 1552 1556 1560 1564 1568 1572 1576 1580 1584 1588 1592 1596 1600 1604 1608 1612 1616 1620 1624 1628 1632 1636 1640 1644 1648 1652 1656 1660 1664 1668 1672 1676 1680 1684 1688 1692 1696 1700 1704 1708 1712 1716 1720 1724 1728 1732 1736 1740 1744 1748 1752 1756 1760 1764 1768 1772 1776 1780 1784 1788 1792 1796 1800 1804 1808 1812 1816 1820 1824 1828 1832 1836 1840 1844 1848 1852 1856 1860 1864 1868 1872 1876 1880 1884 1888 1892 1896 1900 1904 1908 1912 1916 1920 1924 1928 1932 1936 1940 1944 1948 1952 1956 1960 1964 1968 1972 1976 1980 1984 1988 1992 1996 2000 2004 2008 2012 2016 2020 2024 2028 2032 2036 2040 2044 2048 2052 2056 2060 2064 2068 2072 2076 2080 2084 2088 2092 2096 2100 2104 2108 2112 2116 2120 2124 2128 2132 2136 2140 2144 2148 2152 2156 2160 2164 2168 2172 2176 2180 2184 2188 2192 2196 2200 2204 2208 2212 2216 2220 2224 2228 2232 2236 2240 2244 2248 2252 2256 2260 2264 2268 2272 2276 2280 2284 2288 2292 2296 2300 2304 2308 2312 2316 2320 2324 2328 2332 2336 2340 2344 2348 2352 2356 2360 2364 2368 2372 2376 2380 2384 2388 2392 2396 2400 2404 2408 2412 2416 2420 2424 2428 2432 2436 2440 2444 2448 2452 2456 2460 2464 2468 2472 2476 2480 2484 2488 2492 2496 2500 2504 2508 2512 2516 2520 2524 2528 2532 2536 2540 2544 2548 2552 2556 2560 2564 2568 2572 2576 2580 2584 2588 2592 2596 2600 2604 2608 2612 2616 2620 2624 2628 2632 2636 2640 2644 2648 2652 2656 2660 2664 2668 2672 2676 2680 2684 2688 2692 2696 2700 2704 2708 2712 2716 2720 2724 2728 2732 2736 2740 2744 2748 2752 2756 2760 2764 2768 2772 2776 2780 2784 2788 2792 2796 2800 2804 2808 2812 2816 2820 2824 2828 2832 2836 2840 2844 2848 2852 2856 2860 2864 2868 2872 2876 2880 2884 2888 2892 2896 2900 2904 2908 2912 2916 2920 2924 2928 2932 2936 2940 2944 2948 2952 2956 2960 2964 2968 2972 2976 2980 2984 2988 2992 2996 3000 3004 3008 3012 3016 3020 3024 3028 3032 3036 3040 3044 3048 3052 3056 3060 3064 3068 3072 3076 3080 3084 3088 3092 3096 3100 3104 3108 3112 3116 3120 3124 3128 3132 3136 3140 3144 3148 3152 3156 3160 3164 3168 3172 3176 3180 3184 3188 3192 3196 3200 3204 3208 3212 3216 3220 3224 3228 3232 3236 3240 3244 3248 3252 3256 3260 3264 3268 3272 3276 3280 3284 3288 3292 3296 3300 3304 3308 3312 3316 3320 3324 3328 3332 3336 3340 3344 3348 3352 3356 3360 3364 3368 3372 3376 3380 3384 3388 3392 3396 3400 3404 3408 3412 3416 3420 3424 3428 3432 3436 3440 3444 3448 3452 3456 3460 3464 3468 3472 3476 3480 3484 3488 3492 3496 3500 3504 3508 3512 3516 3520 3524 3528 3532 3536 3540 3544 3548 3552 3556 3560 3564 3568 3572 3576 3580 3584 3588 3592 3596 3600 3604 3608 3612 3616 3620 3624 3628 3632 3636 3640 3644 3648 3652 3656 3660 3664 3668 3672 3676 3680 3684 3688 3692 3696 3700 3704 3708 3712 3716 3720 3724 3728 3732 3736 3740 3744 3748 3752 3756 3760 3764 3768 3772 3776 3780 3784 3788 3792 3796 3800 3804 3808 3812 3816 3820 3824 3828 3832 3836 3840 3844 3848 3852 3856 3860 3864 3868 3872 3876 3880 3884 3888 3892 3896 3900 3904 3908 3912 3916 3920 3924 3928 3932 3936 3940 3944 3948 3952 3956 3960 3964 3968 3972 3976 3980 3984 3988 3992 3996 4000 4004 4008 4012 4016 4020 4024 4028 4032 4036 4040 4044 4048 4052 4056 4060 4064 4068 4072 4076 4080 4084 4088 4092 4096 4100 4104 4108 4112 4116 4120 4124 4128 4132 4136 4140 4144 4148 4152 4156 4160 4164 4168 4172 4176 4180 4184 4188 4192 4196 4200 4204 4208 4212 4216 4220 4224 4228 4232 4236 4240 4244 4248 4252 4256 4260 4264 4268 4272 4276 4280 4284 4288 4292 4296 4300 4304 4308 4312 4316 4320 4324 4328 4332 4336 4340 4344 4348 4352 4356 4360 4364 4368 4372 4376 4380 4384 4388 4392 4396 4400 4404 4408 4412 4416 4420 4424 4428 4432 4436 4440 4444 4448 4452 4456 4460 4464 4468 4472 4476 4480 4484 4488 4492 4496 4500 4504 4508 4512 4516 4520 4524 4528 4532 4536 4540 4544 4548 4552 4556 4560 4564 4568 4572 4576 4580 4584 4588 4592 4596 4600 4604 4608 4612 4616 4620 4624 4628 4632 4636 4640 4644 4648 4652 4656 4660 4664 4668 4672 4676 4680 4684 4688 4692 4696 4700 4704 4708 4712 4716 4720 4724 4728 4732 4736 4740 4744 4748 4752 4756 4760 4764 4768 4772 4776 4780 4784 4788 4792 4796 4800 4804 4808 4812 4816 4820 4824 4828 4832 4836 4840 4844 4848 4852 4856 4860 4864 4868 4872 4876 4880 4884 4888 4892 4896 4900 4904 4908 4912 4916 4920 4924 4928 4932 4936 4940 4944 4948 4952 4956 4960 4964 4968 4972 4976 4980 4984 4988 4992 4996 5000 5004 5008 5012 5016 5020 5024 5028 5032 5036 5040 5044 5048 5052 5056 5060 5064 5068 5072 5076 5080 5084 5088 5092 5096 5100 5104 5108 5112 5116 5120 5124 5128 5132 5136 5140 5144 5148 5152 5156 5160 5164 5168 5172 5176 5180 5184 5188 5192 5196 5200 5204 5208 5212 5216 5220 5224 5228 5232 5236 5240 5244 5248 5252 5256 5260 5264 5268 5272 5276 5280 5284 5288 5292 5296 5300 5304 5308 5312 5316 5320 5324 5328 5332 5336 5340 5344 5348 5352 5356 5360 5364 5368 5372 5376 5380 5384 5388 5392 5396 5400 5404 5408 5412 5416 5420 5424 5428 5432 5436 5440 5444 5448 5452 5456 5460 5464 5468 5472 5476 5480 5484 5488 5492 5496 5500 5504 5508 5512 5516 5520 5524 5528 5532 5536 5540 5544 5548 5552 5556 5560 5564 5568 5572 5576 5580 5584 5588 5592 5596 5600 5604 5608 5612 5616 5620 5624 5628 5632 5636 5640 5644 5648 5652 5656 5660 5664 5668 5672 5676 5680 5684 5688 5692 5696 5700 5704 5708 5712 5716 5720 5724 5728 5732 5736 5740 5744 5748 5752 5756 5760 5764 5768 5772 5776 5780 5784 5788 5792 5796 5800 5804 5808 5812 5816 5820 5824 5828 5832 5836 5840 5844 5848 5852 5856 5860 5864 5868 5872 5876 5880 5884 5888 5892 5896 5900 5904 5908 5912 5916 5920 5924 5928 5932 5936 5940 5944 5948 5952 5956 5960 5964 5968 5972 5976 5980 5984 5988 5992 5996 6000 6004 6008 6012 6016 6020 6024 6028 6032 6036 6040 6044 6048 6052 6056 6060 6064 6068 6072 6076 6080 6084 6088 6092 6096 6100 6104 6108 6112 6116 6120 6124 6128 6132 6136 6140 6144 </DataArray>
<DataArray  type="UInt8"  Name="types"  format="ascii">10 10 10 10 10 10 10 10 10 10 10 10 10 10 10 10 10 10 10 10 10 10 10 10 10 10 10 10 10 10 10 10 10 10 10 10 10 10 10 10 10 10 10 10 10 10 10 10 10 10 10 10 10 10 10 10 10 10 10 10 10 10 10 10 10 10 10 10 10 10 10 10 10 10 10 10 10 10 10 10 10 10 10 10 10 10 10 10 10 10 10 10 10 10 10 10 10 10 10 10 10 10 10 10 10 10 10 10 10 10 10 10 10 10 10 10 10 10 10 10 10 10 10 10 10 10 10 10 10 10 10 10 10 10 10 10 10 10 10 10 10 10 10 10 10 10 10 10 10 10 10 10 10 10 10 10 10 10 10 10 10 10 10 10 10 10 10 10 10 10 10 10 10 10 10 10 10 10 10 10 10 10 10 10 10 10 10 10 10 10 10 10 10 10 10 10 10 10 10 10 10 10 10 10 10 10 10 10 10 10 10 10 10 10 10 10 10 10 10 10 10 10 10 10 10 10 10 10 10 10 10 10 10 10 10 10 10 10 10 10 10 10 10 10 10 10 10 10 10 10 10 10 10 10 10 10 10 10 10 10 10 10 10 10 10 10 10 10 10 10 10 10 10 10 10 10 10 10 10 10 10 10 10 10 10 10 10 10 10 10 10 10 10 10 10 10 10 10 10 10 10 10 10 10 10 10 10 10 10 10 10 10 10 10 10 10 10 10 10 10 10 10 10 10 10 10 10 10 10 10 10 10 10 10 10 10 10 10 10 10 10 10 10 10 10 10 10 10 10 10 10 10 10 10 10 10 10 10 10 10 10 10 10 10 10 10 10 10 10 10 10 10 10 10 10 10 10 10 10 10 10 10 10 10 10 10 10 10 10 10 10 10 10 10 10 10 10 10 10 10 10 10 10 10 10 10 10 10 10 10 10 10 10 10 10 10 10 10 10 10 10 10 10 10 10 10 10 10 10 10 10 10 10 10 10 10 10 10 10 10 10 10 10 10 10 10 10 10 10 10 10 10 10 10 10 10 10 10 10 10 10 10 10 10 10 10 10 10 10 10 10 10 10 10 10 10 10 10 10 10 10 10 10 10 10 10 10 10 10 10 10 10 10 10 10 10 10 10 10 10 10 10 10 10 10 10 10 10 10 10 10 10 10 10 10 10 10 10 10 10 10 10 10 10 10 10 10 10 10 10 10 10 10 10 10 10 10 10 10 10 10 10 10 10 10 10 10 10 10 10 10 10 10 10 10 10 10 10 10 10 10 10 10 10 10 10 10 10 10 10 10 10 10 10 10 10 10 10 10 10 10 10 10 10 10 10 10 10 10 10 10 10 10 10 10 10 10 10 10 10 10 10 10 10 10 10 10 10 10 10 10 10 10 10 10 10 10 10 10 10 10 10 10 10 10 10 10 10 10 10 10 10 10 10 10 10 10 10 10 10 10 10 10 10 10 10 10 10 10 10 10 10 10 10 10 10 10 10 10 10 10 10 10 10 10 10 10 10 10 10 10 10 10 10 10 10 10 10 10 10 10 10 10 10 10 10 10 10 10 10 10 10 10 10 10 10 10 10 10 10 10 10 10 10 10 10 10 10 10 10 10 10 10 10 10 10 10 10 10 10 10 10 10 10 10 10 10 10 10 10 10 10 10 10 10 10 10 10 10 10 10 10 10 10 10 10 10 10 10 10 10 10 10 10 10 10 10 10 10 10 10 10 10 10 10 10 10 10 10 10 10 10 10 10 10 10 10 10 10 10 10 10 10 10 10 10 10 10 10 10 10 10 10 10 10 10 10 10 10 10 10 10 10 10 10 10 10 10 10 10 10 10 10 10 10 10 10 10 10 10 10 10 10 10 10 10 10 10 10 10 10 10 10 10 10 10 10 10 10 10 10 10 10 10 10 10 10 10 10 10 10 10 10 10 10 10 10 10 10 10 10 10 10 10 10 10 10 10 10 10 10 10 10 10 10 10 10 10 10 10 10 10 10 10 10 10 10 10 10 10 10 10 10 10 10 10 10 10 10 10 10 10 10 10 10 10 10 10 10 10 10 10 10 10 10 10 10 10 10 10 10 10 10 10 10 10 10 10 10 10 10 10 10 10 10 10 10 10 10 10 10 10 10 10 10 10 10 10 10 10 10 10 10 10 10 10 10 10 10 10 10 10 10 10 10 10 10 10 10 10 10 10 10 10 10 10 10 10 10 10 10 10 10 10 10 10 10 10 10 10 10 10 10 10 10 10 10 10 10 10 10 10 10 10 10 10 10 10 10 10 10 10 10 10 10 10 10 10 10 10 10 10 10 10 10 10 10 10 10 10 10 10 10 10 10 10 10 10 10 10 10 10 10 10 10 10 10 10 10 10 10 10 10 10 10 10 10 10 10 10 10 10 10 10 10 10 10 10 10 10 10 10 10 10 10 10 10 10 10 10 10 10 10 10 10 10 10 10 10 10 10 10 10 10 10 10 10 10 10 10 10 10 10 10 10 10 10 10 10 10 10 10 10 10 10 10 10 10 10 10 10 10 10 10 10 10 10 10 10 10 10 10 10 10 10 10 10 10 10 10 10 10 10 10 10 10 10 10 10 10 10 10 10 10 10 10 10 10 10 10 10 10 10 10 10 10 10 10 10 10 10 10 10 10 10 10 10 10 10 10 10 10 10 10 10 10 10 10 10 10 10 10 10 10 10 10 10 10 10 10 10 10 10 10 10 10 10 10 10 10 10 10 10 10 10 10 10 10 10 10 10 10 10 10 10 10 10 10 10 10 10 10 10 10 10 10 10 10 10 10 10 10 10 10 10 10 10 10 10 10 10 10 10 10 10 10 10 10 10 10 10 10 10 10 10 10 10 10 10 10 10 10 10 10 10 10 10 10 10 10 10 10 10 10 10 10 10 10 10 10 10 10 10 10 10 10 10 10 10 10 10 10 10 10 10 10 10 10 10 10 10 10 10 10 10 10 10 10 10 10 10 10 10 10 10 10 10 10 10 10 10 10 10 10 10 10 10 10 10 10 10 10 10 10 10 10 10 10 10 10 10 10 10 10 10 10 10 10 10 10 10 10 10 10 10 10 10 10 10 10 10 10 10 10 10 10 10 10 10 10 10 10 10 10 10 10 10 10 10 10 10 10 10 10 10 10 10 10 10 10 10 10 10 10 10 10 10 10 10 10 10 10 10 10 10 10 10 10 10 10 10 10 10 10 10 10 10 10 10 10 10 10 10 10 10 10 10 10 10 10 10 10 10 10 10 10 10 10 10 10 10 10 10 10 10 10 10 10 10 10 10 10 10 10 10 10 10 10 10 10 10 10 10 10 10 10 10 10 10 10 10 10 10 10 10 10 10 10 10 10 10 10 10 10 10 10 10 10 10 10 10 10 10 10 10 10 10 10 10 10 10 10 10 10 10 10 10 10 10 10 10 10 10 10 10 10 10 10 10 10 10 10 10 10 10 10 </DataArray>
</Cells>
<PointData  Tensors="Piola Kirchhoff sec Stress"> 
<DataArray  type="Float64"  Name="Piola Kirchhoff sec Stress"  NumberOfComponents="9" format="ascii">1.8601740906548559e+04 7.8889388563031316e+03 1.6179228861049044e+03 7.8889388563031280e+03 3.8165819398727013e+04 7.3413591831332815e+03 1.6179228861049046e+03 7.3413591831332842e+03 1.9747772953463907e+04  8.0225493968392066e+03 2.0062901278444199e+03 1.4978841151830588e+02 2.0062901278444185e+03 1.5879241087699136e+04 4.1275757912441268e+03 1.4978841151830594e+02 4.1275757912441268e+03 7.4568874552563548e+03  8.1821934449448054e+02 -1.2098332345662190e+02 -1.5216901009137058e+02 -1.2098332345662112e+02 2.4610681315291035e+03 -1.3278527945275491e+02 -1.5216901009137038e+02 -1.3278527945275519e+02 1.0576831833552885e+03  -6.0306092403105577e+03 -8.0922643979263341e+01 -3.4402534263129417e+02 -8.0922643979263682e+01 -1.0504657870379140e+04 -4.4458077089206854e+03 -3.4402534263129428e+02 -4.4458077089206845e+03 -2.8551128958366248e+03  -2.5772396858745440e+04 6.5189677726787695e+03 2.1293387857550647e+03 6.5189677726787704e+03 -4.1728309805729768e+04 -9.2138465593668461e+03 2.1293387857550642e+03 -9.2138465593668479e+03 -1.5246545572526666e+04  2.1112719126291795e+03 2.4658371433287762e+03 5.2284451131804781e+02 2.4658371433287780e+03 2.4364546100453412e+04 8.5146154620788036e+02 5.2284451131804769e+02 8.5146154620788047e+02 4.4189413747451399e+03  8.2408795814422945e+02 3.9792529180904194e+03 -1.5186782631623778e+01 3.9792529180904194e+03 1.3380295988904865e+04 -2.9716595615635521e+02 -1.5186782631623874e+01 -2.9716595615635464e+02 2.8169324024103971e+03  1.5287692920917359e+03 3.4206923872391967e+03 -4.1721323047547736e+02 3.4206923872391976e+03 3.9168262826604259e+03 -1.6042264037924681e+02 -4.1721323047547713e+02 -1.6042264037924693e+02 2.1786403488171604e+03  3.2931669529026026e+03 1.8651741220878614e+03 -5.3392749603609923e+02 1.8651741220878619e+03 -4.2296593626814156e+03 7.7048822710119498e+02 -5.3392749603609934e+02 7.7048822710119509e+02 2.9871953672553495e+03  6.3975832772862486e+03 -2.8674847177028378e+03 -4.0903015643194749e+01 -2.8674847177028382e+03 -1.0727207603619416e+04 1.8153099253595112e+03 -4.0903015643194685e+01 1.8153099253595105e+03 4.9948491624033804e+03  6.3418012725092940e+03 3.8462221845378076e+03 2.8415387300998276e+02 3.8462221845378053e+03 2.4110662637193440e+04 1.8169181044002400e+02 2.8415387300998282e+02 1.8169181044002394e+02 6.8760560206161881e+03  5.2597084562371820e+03 4.8403623873393299e+03 7.3837302870035529e+01 4.8403623873393281e+03 1.4320344360117953e+04 1.6917333115705127e+01 7.3837302870035487e+01 1.6917333115705137e+01 5.1929896920539541e+03  6.0459006172674344e+03 4.6039615496528886e+03 -7.6436870012348734e+01 4.6039615496528895e+03 6.1222750789461388e+03 7.0941722355098037e+01 -7.6436870012348791e+01 7.0941722355098022e+01 4.8048314138546730e+03  7.2494579055256499e+03 2.3276728032546221e+03 -4.6611671128477717e+01 2.3276728032546221e+03 -1.0269243439384086e+03 3.5334223523911783e+02 -4.6611671128477795e+01 3.5334223523911760e+02 5.2666445993951911e+03  8.6549874219140565e+03 -3.3288105880887256e+03 2.5853713315796693e+02 -3.3288105880887256e+03 -5.2310334905680602e+03 7.6267075852103005e+02 2.5853713315796682e+02 7.6267075852103005e+02 7.5315975305927323e+03  1.0920334661522018e+04 3.9190999337644180e+03 9.4685496178954224e+01 3.9190999337644180e+03 2.3907019096470587e+04 5.2384858825412095e+01 9.4685496178954125e+01 5.2384858825412039e+01 9.7887886089435888e+03  1.0120131652614293e+04 4.9884364854642563e+03 5.9008676557890951e+01 4.9884364854642608e+03 1.5136257392828391e+04 1.1108814328404374e+02 5.9008676557890922e+01 1.1108814328404372e+02 8.0982201408157543e+03  1.0816585158988528e+04 4.5926662735859563e+03 7.8233000166123418e+01 4.5926662735859582e+03 8.3919220303636157e+03 1.5732268056146233e+02 7.8233000166123389e+01 1.5732268056146239e+02 7.7675542826053461e+03  1.1675312020717078e+04 2.1634282944005849e+03 1.9448123461890142e+02 2.1634282944005845e+03 3.2528714339182798e+03 2.0365642273021587e+02 1.9448123461890142e+02 2.0365642273021601e+02 8.2670305611456442e+03  1.2582197633955344e+04 -2.9393593165997745e+03 4.2335816232312294e+02 -2.9393593165997745e+03 1.9918019670244591e+03 5.8976426373672541e+02 4.2335816232312288e+02 5.8976426373672541e+02 1.0462947456320830e+04  1.5011672810083506e+04 3.4817220193457952e+03 -3.8946921661701985e+01 3.4817220193457929e+03 2.3834257148766821e+04 1.2425597151432244e+01 -3.8946921661702007e+01 1.2425597151432230e+01 1.2650591545767638e+04  1.4359062682330898e+04 4.5954896175629228e+03 3.5921308689997041e+01 4.5954896175629219e+03 1.6290027084742078e+04 1.3809527469758834e+02 3.5921308689997026e+01 1.3809527469758828e+02 1.0836919707676041e+04  1.4851126440468146e+04 4.1198267309881494e+03 1.3896575380836231e+02 4.1198267309881512e+03 1.1007353919488116e+04 1.6185085507824178e+02 1.3896575380836231e+02 1.6185085507824166e+02 1.0484221413075293e+04  1.5477514755161785e+04 1.8960497606676836e+03 2.7398492912368704e+02 1.8960497606676836e+03 7.7680947773424723e+03 1.4228908965756304e+02 2.7398492912368704e+02 1.4228908965756295e+02 1.1036249679748364e+04  1.6169092761279380e+04 -2.2031918217307784e+03 5.1271673998993765e+02 -2.2031918217307780e+03 8.6689799864014385e+03 5.2890109654652440e+02 5.1271673998993776e+02 5.2890109654652440e+02 1.3152742237646014e+04  1.7530814690424188e+04 2.4086190003833894e+03 -1.0165486338024115e+02 2.4086190003833899e+03 2.2806430387083041e+04 3.9973503278299205e+01 -1.0165486338024114e+02 3.9973503278299205e+01 1.4340639021565970e+04  1.7108257896744093e+04 3.7379942232639141e+03 2.3691009458615703e+01 3.7379942232639141e+03 1.7206631012135284e+04 1.3121731005279318e+02 2.3691009458615689e+01 1.3121731005279321e+02 1.2796965856829593e+04  1.7456540499113184e+04 3.3967844021318024e+03 1.4684228785098466e+02 3.3967844021318024e+03 1.3384168306931855e+04 1.2780512799506221e+02 1.4684228785098466e+02 1.2780512799506232e+02 1.2457705845003617e+04  1.7945969894205176e+04 1.6145942486978245e+03 2.7078414999203881e+02 1.6145942486978245e+03 1.1669483244043829e+04 9.5566986087315115e+01 2.7078414999203881e+02 9.5566986087314987e+01 1.3002794682818394e+04  1.8487500268255557e+04 -1.3098952798603987e+03 4.7875231389966734e+02 -1.3098952798603989e+03 1.3696634139856364e+04 4.1055835906582467e+02 4.7875231389966717e+02 4.1055835906582445e+02 1.4838423544342473e+04  1.8483576177884275e+04 1.4672434973848624e+03 -1.3162431556400961e+02 1.4672434973848619e+03 2.1018113142737730e+04 2.8390396667052112e+01 -1.3162431556400963e+02 2.8390396667052112e+01 1.4950968259660929e+04  1.8186568763980653e+04 2.7044546098970936e+03 4.0619334684227066e+00 2.7044546098970936e+03 1.7403708708684924e+04 9.0783651869650356e+01 4.0619334684227812e+00 9.0783651869650342e+01 1.3719255611129080e+04  1.8360429272542173e+04 2.5439551433044894e+03 1.2522199100784172e+02 2.5439551433044890e+03 1.4964239498113537e+04 6.9182200225233530e+01 1.2522199100784167e+02 6.9182200225233544e+01 1.3405922153669440e+04  1.8740074144861675e+04 1.2707018694867675e+03 2.2000241720049141e+02 1.2707018694867672e+03 1.4361924909646634e+04 4.4229295635742325e+01 2.2000241720049141e+02 4.4229295635742353e+01 1.3883499746214526e+04  1.9162884670604413e+04 -5.1247721352842586e+02 3.5432853740269917e+02 -5.1247721352842586e+02 1.6679323067690733e+04 2.7158542627937970e+02 3.5432853740269934e+02 2.7158542627937982e+02 1.5262521326278837e+04  1.7705496014370037e+04 4.4440670461681788e+02 -1.1190592507016049e+02 4.4440670461681788e+02 1.8518991887403019e+04 1.1481140816873480e+02 -1.1190592507016059e+02 1.1481140816873477e+02 1.4308604536718014e+04  1.7568649628351966e+04 1.5318863954944011e+03 -2.5516749299120438e+01 1.5318863954944011e+03 1.6767843436112671e+04 6.8024481328818254e+01 -2.5516749299120473e+01 6.8024481328818254e+01 1.3567782301682699e+04  1.7637392181227799e+04 1.6317950530398202e+03 8.7495356986986394e+01 1.6317950530398202e+03 1.5521782329388599e+04 2.4922914835618144e+00 8.7495356986986394e+01 2.4922914835618148e+00 1.3294871626003269e+04  1.7971380725091796e+04 8.1230297916516247e+02 1.6205786664549566e+02 8.1230297916516258e+02 1.5805144202578387e+04 -1.2953562050004845e+01 1.6205786664549586e+02 -1.2953562050004845e+01 1.3747632548296042e+04  1.8279791229985080e+04 -1.0279400017113329e+02 2.0791142839240138e+02 -1.0279400017113329e+02 1.7604001809521425e+04 7.1519786071328980e+01 2.0791142839240140e+02 7.1519786071328937e+01 1.4614615208201127e+04  1.6437282909968177e+04 4.2249069963675836e+01 -6.8115434739016621e+01 4.2249069963675900e+01 1.7160339457813625e+04 1.6057346781256473e+02 -6.8115434739016649e+01 1.6057346781256473e+02 1.3770857601635576e+04  1.5307955530630732e+04 4.1198548288718717e+02 1.2622604936778197e+02 4.1198548288718723e+02 1.5719636373485753e+04 1.8156478478614119e+01 1.2622604936778190e+02 1.8156478478614112e+01 1.2637864760781800e+04  1.5485789196565440e+04 3.2198576778186890e+02 2.5490906346489379e+02 3.2198576778186879e+02 1.5023150525476418e+04 -1.0533637568287251e+02 2.5490906346489388e+02 -1.0533637568287254e+02 1.2175636484903287e+04  1.6799019090238737e+04 3.7935885446362150e+00 2.2619992449740246e+02 3.7935885446359432e+00 1.6085706527745520e+04 -4.1828296373999279e+01 2.2619992449740258e+02 -4.1828296373999272e+01 1.2971681320248881e+04  1.7349965097602802e+04 -1.5599659761323835e+02 1.4810283755428878e+02 -1.5599659761323838e+02 1.7499213922981420e+04 6.4617080689645036e+01 1.4810283755428893e+02 6.4617080689645036e+01 1.3856176242924239e+04  1.9148397660635343e+04 1.0304174056096244e+04 7.0264505595573235e+02 1.0304174056096248e+04 3.6284908008039565e+04 3.8762167619301999e+03 7.0264505595573235e+02 3.8762167619301999e+03 2.1532085025793371e+04  6.5856307795057191e+03 4.0785443870790291e+03 1.9347125104681729e+02 4.0785443870790268e+03 1.2643829146675518e+04 2.2027653606840222e+03 1.9347125104681734e+02 2.2027653606840222e+03 7.0782168508042841e+03  6.0286629023014109e+02 2.0137621423479568e+03 -1.3932140617070246e+02 2.0137621423479575e+03 1.7738384063670087e+03 -6.2044095302985603e+01 -1.3932140617070249e+02 -6.2044095302985582e+01 7.4959904558920095e+02  -5.2500008064022959e+03 2.3934506604016733e+03 -3.6641298671594569e+02 2.3934506604016742e+03 -7.6608589572242827e+03 -2.2919418415027294e+03 -3.6641298671594564e+02 -2.2919418415027299e+03 -4.5482714901281042e+03  -2.9137670385272479e+04 9.7964023956745241e+03 2.8335952551621045e+02 9.7964023956745241e+03 -4.2829149641950113e+04 -5.2253058628617755e+03 2.8335952551621045e+02 -5.2253058628617755e+03 -2.5573182857371350e+04  3.4790201467617826e+03 2.6773730709593001e+03 4.4452426538215673e+02 2.6773730709592996e+03 2.5364057915351703e+04 1.7935291838344015e+03 4.4452426538215684e+02 1.7935291838344010e+03 6.1314080310221680e+03  2.0204168211515998e+03 5.5693532209236564e+03 -4.5020098816630548e+02 5.5693532209236573e+03 1.5811770112024074e+04 7.8704992823494922e+02 -4.5020098816630559e+02 7.8704992823494922e+02 3.8275380379586909e+03  1.3193010388258438e+03 5.1830949788850567e+03 -9.9980230217737062e+02 5.1830949788850530e+03 3.4596982527937312e+03 -2.3271721254671345e+01 -9.9980230217737062e+02 -2.3271721254671625e+01 1.7114323798497203e+03  2.0015249064881709e+03 3.6541460868230365e+03 -1.0344009434079421e+03 3.6541460868230365e+03 -8.3714272900850410e+03 -8.7201432170683324e+02 -1.0344009434079423e+03 -8.7201432170683336e+02 7.8493797906234192e+02  8.5601907023110616e+03 -2.1117918978370744e+03 -1.0900524437049864e+03 -2.1117918978370740e+03 -1.8600722336882049e+04 -2.2294950685719932e+03 -1.0900524437049867e+03 -2.2294950685719941e+03 3.4071629403941670e+03  6.9698008174933411e+03 3.9918902741278039e+03 1.7920186624904062e+02 3.9918902741278034e+03 2.5048777436152792e+04 4.5527691900609926e+02 1.7920186624904059e+02 4.5527691900609921e+02 7.6326489874221916e+03  5.4349476415851832e+03 5.1153370232753714e+03 -5.3597465084513635e+02 5.1153370232753696e+03 1.4543356810687859e+04 1.5991384840094778e+02 -5.3597465084513613e+02 1.5991384840094798e+02 5.3421145686123418e+03  5.5512456724574122e+03 4.9551368048283330e+03 -8.5110468201378637e+02 4.9551368048283330e+03 5.0310712800635893e+03 1.7080493021498791e+02 -8.5110468201378637e+02 1.7080493021498805e+02 4.4346358764547922e+03  6.4578580024714665e+03 2.3588546437297814e+03 -6.6616872915759927e+02 2.3588546437297809e+03 -3.7996803851235823e+03 2.9177969305146729e+02 -6.6616872915759916e+02 2.9177969305146723e+02 4.5295203017545546e+03  8.7448983733502882e+03 -3.5909510495944751e+03 -1.4867618595717175e+02 -3.5909510495944751e+03 -8.6850176391969508e+03 2.1551682917281963e+02 -1.4867618595717184e+02 2.1551682917281963e+02 6.9761593627321818e+03  1.0894203035348684e+04 3.7954004195643192e+03 2.0718017835961380e+01 3.7954004195643192e+03 2.4015070815028859e+04 -2.9539315977198683e+01 2.0718017835961383e+01 -2.9539315977198665e+01 9.7295687412845618e+03  9.7756879497130576e+03 4.7063063841796638e+03 -3.3100627725650691e+02 4.7063063841796647e+03 1.5111580752702332e+04 1.0144974425566589e+02 -3.3100627725650691e+02 1.0144974425566583e+02 7.8541657330776534e+03  9.9535144794459557e+03 4.1995723272020105e+03 -4.0719980141307599e+02 4.1995723272020086e+03 7.6145521599768326e+03 3.0496578407470713e+02 -4.0719980141307599e+02 3.0496578407470713e+02 7.2550716151143915e+03  1.0617433981753025e+04 1.5983659488110077e+03 -1.5820459277854656e+02 1.5983659488110077e+03 1.8730010705899165e+03 5.8184355784140223e+02 -1.5820459277854647e+02 5.8184355784140246e+02 7.6559870220618459e+03  1.1723580815031222e+04 -3.4595449110134737e+03 3.1332734965526305e+02 -3.4595449110134737e+03 -2.3944712475958884e+01 9.1729147337665472e+02 3.1332734965526299e+02 9.1729147337665495e+02 9.8567412338928898e+03  1.4519482955489311e+04 3.1798729940211788e+03 -5.1416981021594090e+01 3.1798729940211801e+03 2.3466467743864054e+04 -2.2961380429681759e+02 -5.1416981021594125e+01 -2.2961380429681759e+02 1.2063859856597395e+04  1.3676542643385192e+04 4.0283758262115143e+03 -1.3573515307485573e+02 4.0283758262115134e+03 1.6204057551753765e+04 2.7809907899868360e+01 -1.3573515307485582e+02 2.7809907899868328e+01 1.0378155388380419e+04  1.3851291734089284e+04 3.5010065197055042e+03 -7.9233006834500230e+01 3.5010065197055055e+03 1.0664361182248946e+04 2.6507955406777455e+02 -7.9233006834500245e+01 2.6507955406777461e+02 9.9373587326962843e+03  1.4327022283253151e+04 1.2671193520396391e+03 1.3465632456338793e+02 1.2671193520396389e+03 7.2081905085744374e+03 5.5314382931047248e+02 1.3465632456338813e+02 5.5314382931047226e+02 1.0454454767516107e+04  1.4958664067529835e+04 -2.5904987780634433e+03 4.9048933109547988e+02 -2.5904987780634438e+03 7.3660651883274677e+03 1.0515778855803198e+03 4.9048933109547966e+02 1.0515778855803194e+03 1.2449018508853125e+04  1.6883530579971401e+04 2.1049164681873990e+03 -9.3345725492888263e+01 2.1049164681874008e+03 2.2257484633736345e+04 -2.7736514731549141e+02 -9.3345725492888235e+01 -2.7736514731549141e+02 1.3587060080724581e+04  1.6373332632674292e+04 3.1322794301901354e+03 6.2047011376060524e-01 3.1322794301901354e+03 1.7164982930576065e+04 -2.8411935075878592e+01 6.2047011376065675e-01 -2.8411935075878581e+01 1.2334447985848248e+04  1.6560715268154861e+04 2.7957347938801313e+03 1.1360191448545581e+02 2.7957347938801308e+03 1.3352332008873176e+04 1.6040153773454250e+02 1.1360191448545581e+02 1.6040153773454250e+02 1.2015502234044374e+04  1.6960060669520022e+04 1.1074167089991922e+03 2.6586590379109322e+02 1.1074167089991922e+03 1.1578206054918852e+04 4.0936831305504279e+02 2.6586590379109327e+02 4.0936831305504279e+02 1.2563397717556087e+04  1.7368378941369421e+04 -1.5526009180661322e+03 5.0016659490702096e+02 -1.5526009180661322e+03 1.2921298923367964e+04 8.8988875170047277e+02 5.0016659490702102e+02 8.8988875170047220e+02 1.4261171369423335e+04  1.7929282221062389e+04 1.1914896149106667e+03 -8.1073972704981458e+01 1.1914896149106669e+03 2.0563698362363637e+04 -2.2345756638970013e+02 -8.1073972704981472e+01 -2.2345756638970013e+02 1.4226061446453221e+04  1.7612070115349965e+04 2.1861523907099777e+03 9.0014891001424900e+01 2.1861523907099772e+03 1.7445000102948950e+04 -6.0895766285699004e+01 9.0014891001424886e+01 -6.0895766285699004e+01 1.3366680683157329e+04  1.7770129263727547e+04 2.0582407012753733e+03 2.1983680562158233e+02 2.0582407012753733e+03 1.5164283579220168e+04 4.6030489979656494e+01 2.1983680562158233e+02 4.6030489979656522e+01 1.3173273218308155e+04  1.8113897493954893e+04 9.2001464619388173e+02 3.0146575298081234e+02 9.2001464619388173e+02 1.4548699056924981e+04 2.2508000339448049e+02 3.0146575298081245e+02 2.2508000339448057e+02 1.3679709548983174e+04  1.8432733535005929e+04 -6.5797197688705398e+02 3.9794207324847741e+02 -6.5797197688705387e+02 1.6377398217364278e+04 5.9491603336805258e+02 3.9794207324847747e+02 5.9491603336805258e+02 1.5034293307320188e+04  1.7454170248887352e+04 3.1179791212417604e+02 -3.7393321034886803e+01 3.1179791212417638e+02 1.8359194769149006e+04 -5.5826695633212353e+01 -3.7393321034886711e+01 -5.5826695633212360e+01 1.3827802315858711e+04  1.7249618775935345e+04 1.1893858947664910e+03 1.7691816757283738e+02 1.1893858947664910e+03 1.6961676756099841e+04 -5.9331591881655349e+01 1.7691816757283740e+02 -5.9331591881655342e+01 1.3376204908972491e+04  1.7420037523894036e+04 1.2429297943664214e+03 3.1797691721575916e+02 1.2429297943664217e+03 1.5870118798934478e+04 -5.7507686124134089e+01 3.1797691721575916e+02 -5.7507686124134061e+01 1.3295511850945901e+04  1.7806525443953844e+04 5.6349958054380102e+02 3.2236341132375713e+02 5.6349958054380079e+02 1.6074472273211133e+04 3.9715992642437584e+01 3.2236341132375713e+02 3.9715992642437641e+01 1.3799222269552280e+04  1.8065473399000264e+04 -1.6904721630242565e+02 2.5964852727301928e+02 -1.6904721630242568e+02 1.7658566291015632e+04 2.5024724270301130e+02 2.5964852727301928e+02 2.5024724270301124e+02 1.4725993397757051e+04  1.6508939006715336e+04 -4.2451793736788680e+01 7.1940787500213233e+01 -4.2451793736788900e+01 1.7120799478120793e+04 5.6817169764429316e+01 7.1940787500213261e+01 5.6817169764429288e+01 1.3388937056828881e+04  1.5575407516576755e+04 3.2766045309762632e+02 3.6971143695669804e+02 3.2766045309762632e+02 1.6162588534488954e+04 -7.0158601075166317e+01 3.6971143695669809e+02 -7.0158601075166331e+01 1.2669927281414935e+04  1.5829703544524180e+04 1.8756588659908576e+02 5.6215444473503976e+02 1.8756588659908599e+02 1.5687713820824965e+04 -1.5069334373869071e+02 5.6215444473503987e+02 -1.5069334373869074e+02 1.2598180111948730e+04  1.6946960628499397e+04 -1.4773611928664596e+02 4.6557409965043468e+02 -1.4773611928664604e+02 1.6412793679522387e+04 -8.4931853372530057e+01 4.6557409965043468e+02 -8.4931853372530057e+01 1.3290184815285000e+04  1.7335905619083696e+04 -2.0035415280788982e+02 2.2593848067885779e+02 -2.0035415280788982e+02 1.7496744235548878e+04 6.2625304355170073e+01 2.2593848067885781e+02 6.2625304355170115e+01 1.3969899783975810e+04  2.0808056986093645e+04 1.1523043663520353e+04 3.2912576255520150e+02 1.1523043663520353e+04 3.8399228702430883e+04 2.0224516857506324e+03 3.2912576255520150e+02 2.0224516857506326e+03 2.3322634027703767e+04  6.8337616763234701e+03 4.7377389950388078e+03 1.0582216937158087e+02 4.7377389950388078e+03 1.2591063485233179e+04 1.2175525849337228e+03 1.0582216937158087e+02 1.2175525849337234e+03 7.6531790544825690e+03  5.1898280799179315e+02 2.6144435985875884e+03 -1.2661211693963054e+02 2.6144435985875903e+03 1.4032661801278741e+03 -3.3974602649743950e+01 -1.2661211693963070e+02 -3.3974602649743886e+01 7.2268642667217784e+02  -5.5768973664689756e+03 3.1200022203311755e+03 -3.4145508034296586e+02 3.1200022203311737e+03 -7.9111122337451607e+03 -1.2180197533294520e+03 -3.4145508034296586e+02 -1.2180197533294522e+03 -5.3040818285637033e+03  -3.2842750630253846e+04 1.1418702221826657e+04 4.2120434595129120e+02 1.1418702221826652e+04 -4.7280955569569473e+04 -3.3558455156407776e+03 4.2120434595129160e+02 -3.3558455156407776e+03 -3.1241763478395558e+04  3.5680787355597481e+03 3.0467828589419960e+03 2.8428348106005893e+02 3.0467828589419969e+03 2.5474037449720563e+04 1.3434788182516352e+03 2.8428348106005882e+02 1.3434788182516345e+03 8.3895979692648398e+03  2.3469408305656457e+03 6.2310316855949595e+03 -3.5228941239620445e+02 6.2310316855949577e+03 1.5757116802835866e+04 6.4465357922864735e+02 -3.5228941239620445e+02 6.4465357922864700e+02 5.3555658882844527e+03  1.4784355575987638e+03 5.8220604524664413e+03 -6.6206402653433793e+02 5.8220604524664386e+03 3.1300068647682142e+03 -9.6191506669849822e+00 -6.6206402653433804e+02 -9.6191506669850071e+00 1.7330212953129310e+03  2.1702005998827403e+03 4.2416463560263874e+03 -6.6981195910159920e+02 4.2416463560263883e+03 -9.0254384483681024e+03 -6.4290316169381583e+02 -6.6981195910159909e+02 -6.4290316169381572e+02 -1.0268139285107125e+03  9.3446228096970463e+03 -2.6594240838907454e+03 -8.4225627233778187e+02 -2.6594240838907458e+03 -1.8938586237886677e+04 -1.5259543892379058e+03 -8.4225627233778187e+02 -1.5259543892379056e+03 3.5993533830275430e+02  6.9489124418650654e+03 4.2013289845776244e+03 1.4535300425831909e+02 4.2013289845776317e+03 2.5165891147840790e+04 5.2830561923666039e+02 1.4535300425831906e+02 5.2830561923666028e+02 8.8366788479105307e+03  5.4663601712222271e+03 5.5732446673893000e+03 -4.3616028151575290e+02 5.5732446673893019e+03 1.4536302713833004e+04 2.6077046849716709e+02 -4.3616028151575290e+02 2.6077046849716709e+02 5.9707622490596887e+03  5.8765067787799007e+03 5.4718825282304797e+03 -6.7057716101519122e+02 5.4718825282304770e+03 4.8132762093997771e+03 1.5725560799645464e+02 -6.7057716101519122e+02 1.5725560799645470e+02 4.4146791804665909e+03  6.7712646610141601e+03 2.5835668646806062e+03 -5.7902605961304096e+02 2.5835668646806057e+03 -4.6589389457621792e+03 1.5077940439378168e+01 -5.7902605961304062e+02 1.5077940439378196e+01 3.3829142673034967e+03  9.0191815967037473e+03 -3.8909413599164145e+03 -2.9076762715595703e+02 -3.8909413599164159e+03 -8.9440926738233993e+03 -3.6859883228676949e+02 -2.9076762715595686e+02 -3.6859883228676938e+02 4.8975836748182619e+03  1.0596673758174660e+04 3.8849577210888947e+03 4.0637491522657037e+01 3.8849577210888956e+03 2.3796020829781162e+04 1.1288747068485378e+02 4.0637491522657051e+01 1.1288747068485385e+02 1.0077584972658926e+04  9.5967997873964796e+03 4.9017656252657962e+03 -2.9447372694462683e+02 4.9017656252657953e+03 1.4886316866498742e+04 1.0689516197580782e+02 -2.9447372694462689e+02 1.0689516197580778e+02 7.9838220391457662e+03  9.8357077609228909e+03 4.3483314539372896e+03 -3.9569703939969310e+02 4.3483314539372896e+03 7.0942741836934338e+03 2.2045545026444768e+02 -3.9569703939969310e+02 2.2045545026444768e+02 6.9724458603091498e+03  1.0499146877600620e+04 1.5591870052080415e+03 -2.4868758357924145e+02 1.5591870052080412e+03 1.0218069486413353e+03 3.4893334797275310e+02 -2.4868758357924156e+02 3.4893334797275304e+02 6.9455600342029938e+03  1.1484142962418047e+04 -3.5319236950457639e+03 5.9384138607561994e+01 -3.5319236950457639e+03 -7.8746168967722474e+02 3.8938274892856583e+02 5.9384138607562008e+01 3.8938274892856606e+02 8.7085982627690482e+03  1.3955822836071760e+04 3.1774025724551993e+03 -1.4303841569425360e+01 3.1774025724551980e+03 2.2912982484287601e+04 -7.7016958431568995e+01 -1.4303841569425378e+01 -7.7016958431569037e+01 1.1755289270269188e+04  1.3297662515615788e+04 4.0272567537802602e+03 -1.2025778150796472e+02 4.0272567537802615e+03 1.5916137287861469e+04 1.8266957292330432e+01 -1.2025778150796472e+02 1.8266957292330421e+01 1.0239531316002851e+04  1.3480289299275053e+04 3.4157188564995804e+03 -1.1988895372942314e+02 3.4157188564995804e+03 1.0204192568066142e+04 2.0120860439064205e+02 -1.1988895372942314e+02 2.0120860439064214e+02 9.6281558305509461e+03  1.3871373029111168e+04 1.1204873460725271e+03 1.0526870577591287e+01 1.1204873460725282e+03 6.5093187987510364e+03 4.1628058069126530e+02 1.0526870577591303e+01 4.1628058069126547e+02 9.9649056637984067e+03  1.4297425778577261e+04 -2.5897495517218790e+03 2.4908337753930184e+02 -2.5897495517218786e+03 6.2730128247649118e+03 6.5065238075912714e+02 2.4908337753930184e+02 6.5065238075912748e+02 1.1669159239458158e+04  1.6225131650694608e+04 2.0612982416950363e+03 -4.0056239265560343e+01 2.0612982416950367e+03 2.1605164595946284e+04 -1.4382880033968257e+02 -4.0056239265560372e+01 -1.4382880033968257e+02 1.2901104991406117e+04  1.5886850766927766e+04 3.0124044257772512e+03 2.2770394265278568e+01 3.0124044257772493e+03 1.6884586361584432e+04 -4.1678844420862553e+01 2.2770394265278565e+01 -4.1678844420862575e+01 1.2028125146744584e+04  1.6102175893259675e+04 2.6162673401315624e+03 7.5482924523065734e+01 2.6162673401315615e+03 1.3052312081702925e+04 1.2211127046604869e+02 7.5482924523065776e+01 1.2211127046604865e+02 1.1738436238576211e+04  1.6399991613680930e+04 9.4226778065249027e+02 1.6132485218219060e+02 9.4226778065248993e+02 1.1073937788674848e+04 3.3375935163585251e+02 1.6132485218219051e+02 3.3375935163585245e+02 1.2248176584496736e+04  1.6584725062677477e+04 -1.5338419483274931e+03 3.0135928063278402e+02 -1.5338419483274927e+03 1.1862151244106924e+04 6.1522016841794573e+02 3.0135928063278396e+02 6.1522016841794562e+02 1.3798380753173498e+04  1.7379189251513897e+04 1.1569294253363626e+03 -2.9385250251153945e+01 1.1569294253363630e+03 2.0054276997695459e+04 -1.1532562931329694e+02 -2.9385250251153934e+01 -1.1532562931329690e+02 1.3420876989320472e+04  1.7186013215285257e+04 2.0377275155225191e+03 1.2440658977187667e+02 2.0377275155225191e+03 1.7253581126882924e+04 -7.4903851757397021e+01 1.2440658977187675e+02 -7.4903851757396993e+01 1.3018784476078676e+04  1.7383124128658372e+04 1.8702804888598339e+03 2.0189990460604673e+02 1.8702804888598332e+03 1.5018897940258881e+04 2.3758322269531266e+01 2.0189990460604682e+02 2.3758322269531291e+01 1.2980118712819578e+04  1.7646652457301228e+04 7.7849945372017851e+02 2.3497086450875139e+02 7.7849945372017828e+02 1.4239627363662592e+04 1.8435689090095377e+02 2.3497086450875139e+02 1.8435689090095377e+02 1.3557808083495327e+04  1.7769056869609998e+04 -6.5172810071927597e+02 2.6300431022686286e+02 -6.5172810071927563e+02 1.5546140202987270e+04 4.2364138056556584e+02 2.6300431022686291e+02 4.2364138056556578e+02 1.4910747772044137e+04  1.7188221495045644e+04 3.1117689133501023e+02 -2.8974609800449250e-02 3.1117689133501034e+02 1.8186324978207780e+04 -1.1931468386533354e+01 -2.8974609800480583e-02 -1.1931468386533336e+01 1.3102859546027892e+04  1.7054456370457949e+04 1.0837542503118723e+03 2.2246029644775876e+02 1.0837542503118723e+03 1.6958280976044316e+04 -8.6245579759581375e+01 2.2246029644775882e+02 -8.6245579759581418e+01 1.3100903146417080e+04  1.7261638548502651e+04 1.1095502952945285e+03 3.1768838947608498e+02 1.1095502952945285e+03 1.5899789873546899e+04 -6.8803199503547688e+01 3.1768838947608498e+02 -6.8803199503547660e+01 1.3253307776437030e+04  1.7579156487353779e+04 4.7720414219501049e+02 2.9352640246781766e+02 4.7720414219501043e+02 1.5953961747135872e+04 2.4718037453365511e+01 2.9352640246781760e+02 2.4718037453365525e+01 1.3902676130439513e+04  1.7697412236460063e+04 -1.7321292745210428e+02 1.9071343133921692e+02 -1.7321292745210428e+02 1.7165179085532258e+04 1.8523395876936877e+02 1.9071343133921707e+02 1.8523395876936874e+02 1.4970645691181804e+04  1.6537418517316753e+04 -1.1635624230397298e+01 7.3373613489112529e+01 -1.1635624230397276e+01 1.7200473956081772e+04 5.3346317591346853e+01 7.3373613489112500e+01 5.3346317591346853e+01 1.2748297793567262e+04  1.5796328198380714e+04 3.2022053804831603e+02 3.8081952211228975e+02 3.2022053804831592e+02 1.6387913437538660e+04 -1.0693942850950336e+02 3.8081952211228969e+02 -1.0693942850950334e+02 1.2543483300056103e+04  1.6085026984705137e+04 1.9760260724546009e+02 4.9155651752733047e+02 1.9760260724546009e+02 1.5935755438357286e+04 -1.3547919353814945e+02 4.9155651752733058e+02 -1.3547919353814942e+02 1.2797021899954965e+04  1.7017590620428829e+04 -1.0657955564436119e+02 4.0608257362063716e+02 -1.0657955564436116e+02 1.6481082284081538e+04 -9.2570715114608248e+01 4.0608257362063722e+02 -9.2570715114608234e+01 1.3700795588357878e+04  1.7244220575211366e+04 -1.7058859666150826e+02 1.8295576894469079e+02 -1.7058859666150812e+02 1.7339509334340324e+04 2.4989392246798161e+01 1.8295576894469085e+02 2.4989392246798175e+01 1.4524817845378087e+04  2.1863852643226517e+04 1.2115544274877064e+04 9.9474575783517366e+01 1.2115544274877066e+04 3.9853619240132721e+04 8.6263260284960654e+02 9.9474575783517366e+01 8.6263260284960666e+02 2.4399853497476597e+04  7.1137382461194729e+03 5.0229565899414574e+03 6.3119567855697817e+01 5.0229565899414529e+03 1.2990599407810314e+04 5.7165880860812536e+02 6.3119567855697866e+01 5.7165880860812547e+02 7.9700983407560816e+03  5.0439406728225794e+02 2.8187011979298509e+03 -1.0631779871818587e+02 2.8187011979298491e+03 1.3576971168839566e+03 -2.1959858522967494e+01 -1.0631779871818588e+02 -2.1959858522967370e+01 6.9547486239993441e+02  -5.7887088102500784e+03 3.3686576868364318e+03 -3.0903055883327551e+02 3.3686576868364309e+03 -8.1977470109160349e+03 -5.0984370498988164e+02 -3.0903055883327556e+02 -5.0984370498988147e+02 -5.6254352742656902e+03  -3.4640099350081124e+04 1.2086755411729389e+04 6.2914361276156512e+02 1.2086755411729388e+04 -5.0040745847099417e+04 -1.9896789446788791e+03 6.2914361276156512e+02 -1.9896789446788785e+03 -3.3217454372966451e+04  3.7372232382091192e+03 3.2558200649938958e+03 1.8845613680117100e+02 3.2558200649939013e+03 2.5829662763734686e+04 7.0131943331693185e+02 1.8845613680117091e+02 7.0131943331693162e+02 9.6064561342871839e+03  2.5486393742793648e+03 6.5440231788776928e+03 -1.8746224200009860e+02 6.5440231788776946e+03 1.5842477122385559e+04 3.4485723220812542e+02 -1.8746224200009860e+02 3.4485723220812537e+02 6.0359231657202245e+03  1.6426514426675401e+03 6.1681001347894207e+03 -3.5393755823363898e+02 6.1681001347894226e+03 3.0822645135524381e+03 -1.4598309239673373e+01 -3.5393755823363927e+02 -1.4598309239673338e+01 1.8027387120059966e+03  2.4177415594618496e+03 4.5482018334306649e+03 -3.5184798800600447e+02 4.5482018334306686e+03 -9.2459852952239107e+03 -3.3317938196003422e+02 -3.5184798800600458e+02 -3.3317938196003416e+02 -1.6471814535660203e+03  1.0002186425364003e+04 -2.9390572046301522e+03 -5.4445560911045322e+02 -2.9390572046301522e+03 -1.9116554113116421e+04 -9.0310775999133489e+02 -5.4445560911045311e+02 -9.0310775999133477e+02 -7.8907370417008656e+02  7.0091595887307803e+03 4.3599085637216122e+03 1.2020849173821730e+02 4.3599085637216122e+03 2.5262402983415315e+04 3.6261772732630556e+02 1.2020849173821736e+02 3.6261772732630556e+02 9.8017602480447022e+03  5.5281384791247729e+03 5.8614648832614293e+03 -2.4591460357969024e+02 5.8614648832614293e+03 1.4383727921250473e+04 1.6187651823099665e+02 -2.4591460357969012e+02 1.6187651823099679e+02 6.3142243703578706e+03  6.0299348630995910e+03 5.7796060400280794e+03 -3.6065110650015777e+02 5.7796060400280794e+03 4.5516425688433455e+03 5.7448521706721394e+01 -3.6065110650015771e+02 5.7448521706721358e+01 4.2815264944784267e+03  7.0429377000894101e+03 2.7384479292118008e+03 -3.4360053267332535e+02 2.7384479292117994e+03 -4.9686453115650284e+03 -8.7188221575880647e+01 -3.4360053267332540e+02 -8.7188221575880519e+01 2.7327707316580950e+03  9.2707827616933682e+03 -4.0617570903095293e+03 -2.0794106786750424e+02 -4.0617570903095293e+03 -8.7396144928312133e+03 -3.7149701249792054e+02 -2.0794106786750433e+02 -3.7149701249792059e+02 3.8075505154164066e+03  1.0484935477444111e+04 3.9700789423070951e+03 7.0936912777522295e+01 3.9700789423070923e+03 2.3657289634535442e+04 1.4808228995936281e+02 7.0936912777522323e+01 1.4808228995936278e+02 1.0502875406799694e+04  9.5594531660553876e+03 5.0911327009941342e+03 -1.6042348090292680e+02 5.0911327009941342e+03 1.4662040374139808e+04 7.9913967053034071e+01 -1.6042348090292683e+02 7.9913967053034057e+01 8.0936815399666884e+03  9.8803913868191557e+03 4.5126828996647719e+03 -2.3098619691369734e+02 4.5126828996647719e+03 6.7654826861161246e+03 7.4274511391424198e+01 -2.3098619691369743e+02 7.4274511391424198e+01 6.8276449549731788e+03  1.0534091583171712e+04 1.5992801363251860e+03 -1.8948856646784463e+02 1.5992801363251867e+03 6.1869661441083372e+02 6.5806030541750118e+01 -1.8948856646784449e+02 6.5806030541750147e+01 6.4597205351705770e+03  1.1316915165992781e+04 -3.6224278923334832e+03 -4.8329914008985078e+01 -3.6224278923334823e+03 -9.9108056591749721e+02 -2.1044497408611388e+01 -4.8329914008985092e+01 -2.1044497408611321e+01 7.8058853214875517e+03  1.3690288137972177e+04 3.2094422988683009e+03 3.9847521518591293e+01 3.2094422988683023e+03 2.2593095476569204e+04 3.0897879115746317e+01 3.9847521518591293e+01 3.0897879115746338e+01 1.1723422442957288e+04  1.3107577950571593e+04 4.1089431204399634e+03 -6.3241783285461409e+01 4.1089431204399634e+03 1.5615728224208351e+04 1.0881911674052848e+01 -6.3241783285461409e+01 1.0881911674052834e+01 1.0137455502441704e+04  1.3328191657155628e+04 3.4594506001058912e+03 -8.3286496134173490e+01 3.4594506001058899e+03 9.8327242003784922e+03 5.3943105887652507e+01 -8.3286496134173490e+01 5.3943105887652500e+01 9.4362277918489290e+03  1.3669181936882918e+04 1.1053811889377782e+03 -4.6808311279480705e+01 1.1053811889377782e+03 6.0549095596982625e+03 1.1138215707966255e+02 -4.6808311279480733e+01 1.1138215707966256e+02 9.6199027853465122e+03  1.3932305099404368e+04 -2.6285062677583142e+03 5.8179094532467147e+01 -2.6285062677583146e+03 5.8039889925075049e+03 1.5010514095726657e+02 5.8179094532467104e+01 1.5010514095726660e+02 1.1102735142198280e+04  1.5882386134191844e+04 2.0641261734418622e+03 1.7971074529526696e+01 2.0641261734418617e+03 2.1219358908388000e+04 -2.4318847957940587e+01 1.7971074529526696e+01 -2.4318847957940577e+01 1.2564140205995232e+04  1.5605942515322726e+04 3.0215573491369892e+03 2.4358926776775153e+01 3.0215573491369901e+03 1.6588713963008599e+04 -4.1468672447060776e+01 2.4358926776775135e+01 -4.1468672447060783e+01 1.1804265308196796e+04  1.5842469325208789e+04 2.5924435131436089e+03 3.4639705753240897e+01 2.5924435131436089e+03 1.2722633446040532e+04 1.1368809104770166e+00 3.4639705753240854e+01 1.1368809104770263e+00 1.1548302342599844e+04  1.6072519502977586e+04 9.0201114434240526e+02 4.9074988313214142e+01 9.0201114434240492e+02 1.0634680702951344e+04 7.4296253054676114e+01 4.9074988313214149e+01 7.4296253054676086e+01 1.2017839733110017e+04  1.6126213578409510e+04 -1.5554594346720530e+03 9.9765909565808897e+01 -1.5554594346720535e+03 1.1282514487383072e+04 1.6714761205435465e+02 9.9765909565808826e+01 1.6714761205435474e+02 1.3496040000306024e+04  1.7077460220004425e+04 1.1609812366910503e+03 1.4130178836055832e+01 1.1609812366910503e+03 1.9747975348391687e+04 -2.9944586980898816e+01 1.4130178836055824e+01 -2.9944586980898805e+01 1.2944538837134693e+04  1.6920277343313133e+04 2.0168912513471830e+03 9.2118620117698214e+01 2.0168912513471835e+03 1.7033049351871563e+04 -7.8368931084583650e+01 9.2118620117698228e+01 -7.8368931084583664e+01 1.2757825141220921e+04  1.7131234743665249e+04 1.8257229286981653e+03 1.2098194039467904e+02 1.8257229286981660e+03 1.4785059927290751e+04 -6.2025120503426336e+01 1.2098194039467909e+02 -6.2025120503426336e+01 1.2833769989683189e+04  1.7332702822383955e+04 7.3717901886990546e+02 1.0968747677808364e+02 7.3717901886990569e+02 1.3893830010344951e+04 -2.4673260634057268e+00 1.0968747677808361e+02 -2.4673260634057441e+00 1.3453070300531923e+04  1.7354702513597127e+04 -6.6806113612074671e+02 9.7120180308738426e+01 -6.6806113612074671e+02 1.5024103464986076e+04 9.1057574867474230e+01 9.7120180308738384e+01 9.1057574867474202e+01 1.4850690502173924e+04  1.7020415315558519e+04 3.2430965207522809e+02 1.1916264152221947e+01 3.2430965207522843e+02 1.8050728441966749e+04 -4.3913937593125434e+00 1.1916264152221890e+01 -4.3913937593125425e+00 1.2612834087438858e+04  1.6907821660837606e+04 1.0722538805480769e+03 1.5808061540296112e+02 1.0722538805480767e+03 1.6868888810435397e+04 -1.0837990287888996e+02 1.5808061540296106e+02 -1.0837990287888989e+02 1.2881397642893413e+04  1.7121461186507546e+04 1.0829383213277874e+03 2.0722230430747433e+02 1.0829383213277879e+03 1.5798161440547796e+04 -1.2328114404237510e+02 2.0722230430747436e+02 -1.2328114404237516e+02 1.3196077658746619e+04  1.7384190211411311e+04 4.5869627887546653e+02 1.6764183796206117e+02 4.5869627887546653e+02 1.5753693271007942e+04 -8.5701923911343329e+01 1.6764183796206117e+02 -8.5701923911343300e+01 1.3945816727778307e+04  1.7433403437767509e+04 -1.7928508606642905e+02 7.8021273837945785e+01 -1.7928508606642896e+02 1.6822267665345167e+04 -1.2694230170823504e+01 7.8021273837945856e+01 -1.2694230170823479e+01 1.5147495867519207e+04  1.6521830345391314e+04 1.3483829390714787e+01 4.0024893375078442e+01 1.3483829390714670e+01 1.7209575666200642e+04 -2.5437299468372217e+01 4.0024893375078442e+01 -2.5437299468372203e+01 1.2288645811468999e+04  1.5816294256452791e+04 3.3170915795316029e+02 2.6814322717766328e+02 3.3170915795316034e+02 1.6435775334619448e+04 -1.5078197041187386e+02 2.6814322717766328e+02 -1.5078197041187383e+02 1.2406619580603536e+04  1.6113903991839041e+04 2.0735758315919054e+02 3.3355093872072445e+02 2.0735758315919063e+02 1.5977972342625661e+04 -1.6365718419705675e+02 3.3355093872072416e+02 -1.6365718419705672e+02 1.2875157086888988e+04  1.6974432376522964e+04 -9.0222675379806176e+01 2.6696354626291799e+02 -9.0222675379805750e+01 1.6436680188870825e+04 -1.3728288722139405e+02 2.6696354626291799e+02 -1.3728288722139399e+02 1.3935509190278181e+04  1.7139181366494115e+04 -1.5726787176397838e+02 1.0047081292507471e+02 -1.5726787176397843e+02 1.7194960391604000e+04 -6.5493427665178572e+01 1.0047081292507478e+02 -6.5493427665178572e+01 1.4948478894440124e+04  2.2267383546287860e+04 1.2366630013208167e+04 -8.0090036584422165e+01 1.2366630013208172e+04 4.0391042613190970e+04 -6.5327380168961691e+00 -8.0090036584422165e+01 -6.5327380168961380e+00 2.4793754536704564e+04  7.2464935875643332e+03 5.1546524095691248e+03 3.5134408880810298e+01 5.1546524095691220e+03 1.3191091842230615e+04 6.0248280726234697e+01 3.5134408880810255e+01 6.0248280726234697e+01 8.1074748026690677e+03  5.0265479300287762e+02 2.9063319962320011e+03 -8.5594666326262526e+01 2.9063319962320024e+03 1.3623707321373379e+03 -3.1049564296039296e+01 -8.5594666326262569e+01 -3.1049564296039307e+01 6.7385605779690854e+02  -5.8732330032681448e+03 3.4571787409643725e+03 -2.7662003792643100e+02 3.4571787409643730e+03 -8.3226224450008976e+03 2.5047656876873660e+01 -2.7662003792643094e+02 2.5047656876873774e+01 -5.7731505800285504e+03  -3.5420398970839611e+04 1.2315502751476435e+04 7.9031093682265885e+02 1.2315502751476435e+04 -5.1221481410580680e+04 -9.2116700971242051e+02 7.9031093682265896e+02 -9.2116700971242051e+02 -3.4029359546972264e+04  3.7866614232862585e+03 3.3691216527020833e+03 8.8311271144283040e+01 3.3691216527020861e+03 2.5987119886820732e+04 1.2319299266348924e+02 8.8311271144283083e+01 1.2319299266348919e+02 9.9649744875859815e+03  2.6158654526185928e+03 6.6811570334281341e+03 -1.3868699625251455e+01 6.6811570334281341e+03 1.5902894224089399e+04 3.1692237824125133e+01 -1.3868699625251486e+01 3.1692237824125112e+01 6.2241552355039830e+03  1.6902553792288536e+03 6.3178115507095645e+03 -4.9578976747260405e+01 6.3178115507095645e+03 3.0547611908048125e+03 -3.8072576572367844e+01 -4.9578976747260370e+01 -3.8072576572367851e+01 1.8022217420871414e+03  2.5035405050212230e+03 4.6707608996849476e+03 -2.5768856763250163e+01 4.6707608996849485e+03 -9.3572229756145680e+03 -6.6530937281425864e+01 -2.5768856763250145e+01 -6.6530937281425793e+01 -1.8449349141634075e+03  1.0333760908321588e+04 -3.0961861843376400e+03 -2.3305890065611945e+02 -3.0961861843376387e+03 -1.9210250400355155e+04 -3.4960184022136116e+02 -2.3305890065611945e+02 -3.4960184022136104e+02 -1.0647081532650716e+03  6.9886140944007675e+03 4.4529842472050159e+03 7.4172294059848184e+01 4.4529842472050159e+03 2.5250545207350649e+04 1.0850482825516072e+02 7.4172294059848184e+01 1.0850482825516066e+02 1.0083847167000693e+04  5.5277620873210199e+03 5.9816082050519872e+03 -2.6217525113356892e+01 5.9816082050519872e+03 1.4265450685196334e+04 9.2240038568898921e+00 -2.6217525113356896e+01 9.2240038568899188e+00 6.3759720571577818e+03  6.0842751938713654e+03 5.9063848330769997e+03 -3.6014645125936539e+01 5.9063848330769997e+03 4.4049999514905057e+03 -3.3779984845669297e+01 -3.6014645125936561e+01 -3.3779984845669290e+01 4.1979854906785067e+03  7.1262452024823660e+03 2.7924304496804725e+03 -7.3727858740528944e+01 2.7924304496804721e+03 -5.1369631719563567e+03 -1.1457753238368015e+02 -7.3727858740528916e+01 -1.1457753238368015e+02 2.4926267804990111e+03  9.3588568657735814e+03 -4.1697428485157034e+03 -8.4605570494047100e+01 -4.1697428485157016e+03 -8.6796815369811266e+03 -2.5049616063950830e+02 -8.4605570494047186e+01 -2.5049616063950813e+02 3.4632232046973322e+03  1.0378411699479493e+04 4.0280093666449438e+03 7.7947168317215414e+01 4.0280093666449443e+03 2.3516851281872681e+04 1.0137162184780553e+02 7.7947168317215457e+01 1.0137162184780554e+02 1.0600004188797411e+04  9.5029173030278307e+03 5.1828053794405014e+03 9.7715468147797893e+00 5.1828053794405005e+03 1.4469176390819874e+04 1.2522171454517913e+01 9.7715468147797520e+00 1.2522171454517851e+01 8.0470141770566061e+03  9.8618252274892639e+03 4.5874387042414755e+03 -2.1453460973157235e+01 4.5874387042414746e+03 6.5391648135719352e+03 -7.3569468170969643e+01 -2.1453460973157235e+01 -7.3569468170969714e+01 6.6975083962411436e+03  1.0517687298333511e+04 1.6142670014157575e+03 -6.6100762294230591e+01 1.6142670014157575e+03 4.0494706176999404e+02 -1.6394706846152135e+02 -6.6100762294230591e+01 -1.6394706846152135e+02 6.2406573171290502e+03  1.1224912564266977e+04 -3.6785098318033115e+03 -8.2937148716133066e+01 -3.6785098318033115e+03 -1.0521521053635699e+03 -2.7244416452845013e+02 -8.2937148716132995e+01 -2.7244416452845002e+02 7.4748333538307097e+03  1.3524614901327475e+04 3.2371283465690767e+03 7.8502374083813805e+01 3.2371283465690763e+03 2.2379438121857405e+04 8.0745911608367010e+01 7.8502374083813805e+01 8.0745911608367024e+01 1.1663217076091800e+04  1.2986199234549174e+04 4.1608497087684991e+03 2.5019860921939863e+01 4.1608497087684991e+03 1.5381851711860427e+04 -1.8571116221304720e+01 2.5019860921939873e+01 -1.8571116221304738e+01 1.0019662902466538e+04  1.3227053978311244e+04 3.4907131712367109e+03 -1.1638063684163864e+01 3.4907131712367095e+03 9.5755425924594565e+03 -1.1442525255665117e+02 -1.1638063684163884e+01 -1.1442525255665119e+02 9.2922782175266675e+03  1.3541807696932327e+04 1.1009165473889382e+03 -6.0875009589829574e+01 1.1009165473889389e+03 5.7937647767880644e+03 -2.0288901021334215e+02 -6.0875009589829574e+01 -2.0288901021334198e+02 9.4296713254115220e+03  1.3728550634300931e+04 -2.6587445074289490e+03 -8.5684932795387439e+01 -2.6587445074289490e+03 5.6003336551624698e+03 -2.8416501640620282e+02 -8.5684932795387411e+01 -2.8416501640620265e+02 1.0837880916087184e+04  1.5692169612104297e+04 2.0728788243531103e+03 6.4830251046455203e+01 2.0728788243531112e+03 2.0989200058365226e+04 5.0629577176106984e+01 6.4830251046455160e+01 5.0629577176107013e+01 1.2400719875737519e+04  1.5440928585530821e+04 3.0429668676712308e+03 3.5362904793423915e+01 3.0429668676712304e+03 1.6358352633154809e+04 -5.6221448203566638e+01 3.5362904793423915e+01 -5.6221448203566673e+01 1.1649837934834919e+04  1.5684902899571998e+04 2.5974353315335356e+03 -6.2827684420895169e-01 2.5974353315335356e+03 1.2475942566487251e+04 -1.4901074660280906e+02 -6.2827684420896324e-01 -1.4901074660280909e+02 1.1407294955569932e+04  1.5885855674737581e+04 8.9072496679859103e+02 -5.1919414310231659e+01 8.9072496679859103e+02 1.0368075633911469e+04 -2.2694228370254081e+02 -5.1919414310231694e+01 -2.2694228370254069e+02 1.1868631238601307e+04  1.5878770032173685e+04 -1.5710469529868144e+03 -8.1547158204936409e+01 -1.5710469529868144e+03 1.1010030234437616e+04 -2.8598811030983990e+02 -8.1547158204936409e+01 -2.8598811030983973e+02 1.3320794564449854e+04  1.6898982241580048e+04 1.1653137348170537e+03 4.7582898489457158e+01 1.1653137348170530e+03 1.9550934546332290e+04 1.5275308500369222e+01 4.7582898489457136e+01 1.5275308500369201e+01 1.2729460373335713e+04  1.6751658982364639e+04 2.0234203364246225e+03 4.3069017730424591e+01 2.0234203364246230e+03 1.6842001844575985e+04 -9.3671743983013627e+01 4.3069017730424605e+01 -9.3671743983013627e+01 1.2599608408485827e+04  1.6962377121999842e+04 1.8210490526746446e+03 1.5255574349927603e+01 1.8210490526746453e+03 1.4579732472323776e+04 -1.7665379173044917e+02 1.5255574349927581e+01 -1.7665379173044914e+02 1.2714046724742610e+04  1.7138635698619983e+04 7.2628440620151844e+02 -3.3669297680534584e+01 7.2628440620151878e+02 1.3658566156274463e+04 -2.3844507014582112e+02 -3.3669297680534584e+01 -2.3844507014582126e+02 1.3351983668431030e+04  1.7119266798269564e+04 -6.7569973064511146e+02 -6.8091802238146030e+01 -6.7569973064511134e+02 1.4754423193153571e+04 -2.8209348281022500e+02 -6.8091802238146030e+01 -2.8209348281022500e+02 1.4767852198778408e+04  1.6881708282278345e+04 3.2984627396005425e+02 1.8160610303770277e+01 3.2984627396005391e+02 1.7917822045404453e+04 -2.9258168605220561e+01 1.8160610303770284e+01 -2.9258168605220561e+01 1.2388680544712812e+04  1.6771299953659138e+04 1.0785618710652511e+03 5.7035219491831604e+01 1.0785618710652511e+03 1.6737200212099931e+04 -1.3847292933450402e+02 5.7035219491831576e+01 -1.3847292933450402e+02 1.2746280796368952e+04  1.6982687336884297e+04 1.0824112401250800e+03 5.0977797328824686e+01 1.0824112401250798e+03 1.5653906085139170e+04 -1.9999072028422049e+02 5.0977797328824700e+01 -1.9999072028422049e+02 1.3117156394875299e+04  1.7223852642545873e+04 4.5509380014854685e+02 4.8723059246555707e+00 4.5509380014854685e+02 1.5576396935922554e+04 -2.3758945460638586e+02 4.8723059246555573e+00 -2.3758945460638583e+02 1.3903281428210834e+04  1.7247803124944294e+04 -1.8104390815995211e+02 -4.5685223174479951e+01 -1.8104390815995225e+02 1.6607717395449363e+04 -2.6327138138074054e+02 -4.5685223174479958e+01 -2.6327138138074048e+02 1.5155214446902120e+04  1.6434905324000323e+04 2.2628357902262316e+01 1.4477393437313941e+01 2.2628357902262199e+01 1.7131124731719818e+04 -1.2786609114232084e+02 1.4477393437313914e+01 -1.2786609114232084e+02 1.2075879373661868e+04  1.5730102029946996e+04 3.4397906920019739e+02 1.1888131725458798e+02 3.4397906920019756e+02 1.6366516646794087e+04 -2.0375135623275634e+02 1.1888131725458797e+02 -2.0375135623275628e+02 1.2311863038445368e+04  1.6030397518330734e+04 2.1632975604838802e+02 1.3694131198646983e+02 2.1632975604838794e+02 1.5902517112331974e+04 -2.0838360732546880e+02 1.3694131198646988e+02 -2.0838360732546880e+02 1.2853344268048164e+04  1.6871075952721028e+04 -8.3964755983048320e+01 9.9743428375905125e+01 -8.3964755983048192e+01 1.6328839091117428e+04 -2.0305840535155838e+02 9.9743428375905083e+01 -2.0305840535155838e+02 1.3964643599419478e+04  1.7010928186669109e+04 -1.5238376625519592e+02 1.7373339543803286e+01 -1.5238376625519578e+02 1.7050642471989475e+04 -1.8606418776626222e+02 1.7373339543803336e+01 -1.8606418776626222e+02 1.5052815902347278e+04  2.2081843152363421e+04 1.2360610050637337e+04 -2.4781964475157929e+02 1.2360610050637335e+04 4.0099979740017123e+04 -9.0843519316655772e+02 -2.4781964475157929e+02 -9.0843519316655772e+02 2.4549277047985004e+04  7.2402205938056313e+03 5.2074267994121046e+03 1.5619473081607818e+01 5.2074267994121019e+03 1.3176771254601357e+04 -4.6628059614353862e+02 1.5619473081607820e+01 -4.6628059614353850e+02 8.0688719092035162e+03  5.2112965428236691e+02 2.9416924399311806e+03 -5.8119878146337420e+01 2.9416924399311806e+03 1.3829928949272482e+03 -3.7486505062271284e+01 -5.8119878146337506e+01 -3.7486505062271164e+01 6.7043850823128719e+02  -5.8206503776623003e+03 3.4539546082534507e+03 -2.4596716711518715e+02 3.4539546082534498e+03 -8.3052910096694904e+03 5.6221143311675019e+02 -2.4596716711518729e+02 5.6221143311675030e+02 -5.7797718712603846e+03  -3.5326533139610074e+04 1.2207558679825675e+04 9.3228370969363243e+02 1.2207558679825675e+04 -5.1036376835573588e+04 2.1787625461057692e+02 9.3228370969363277e+02 2.1787625461057735e+02 -3.3882701860101828e+04  3.6562679553742373e+03 3.3841202973214367e+03 -1.9233689358634031e+01 3.3841202973214331e+03 2.5815822502769173e+04 -4.6143873270413746e+02 -1.9233689358634116e+01 -4.6143873270413729e+02 9.5248189828837167e+03  2.5421574495547575e+03 6.6786725813612393e+03 1.6743660331558573e+02 6.6786725813612447e+03 1.5854454427490375e+04 -2.9704535191856570e+02 1.6743660331558573e+02 -2.9704535191856553e+02 6.0191424718676135e+03  1.6234468423132130e+03 6.3103657669206414e+03 2.7007241437361768e+02 6.3103657669206405e+03 3.0347231749795869e+03 -6.7948306441319986e+01 2.7007241437361768e+02 -6.7948306441319971e+01 1.7743659750894690e+03  2.4452124810215591e+03 4.6441211397441984e+03 3.1555836733168792e+02 4.6441211397441984e+03 -9.3598962945261464e+03 2.0225417136970378e+02 3.1555836733168792e+02 2.0225417136970384e+02 -1.7106796325236014e+03  1.0321676059593558e+04 -3.1587061130390075e+03 1.0260316540686975e+02 -3.1587061130390089e+03 -1.9225693871905962e+04 2.1921042973658678e+02 1.0260316540686981e+02 2.1921042973658689e+02 -7.5399373477386484e+02  6.8270553061430692e+03 4.4755743188274555e+03 2.0808436555034660e+01 4.4755743188274564e+03 2.5080160540756871e+04 -1.4179612132994100e+02 2.0808436555034653e+01 -1.4179612132994100e+02 9.6293278819083280e+03  5.3992959740584874e+03 5.9598223854872267e+03 2.0179540983023412e+02 5.9598223854872267e+03 1.4137553505526112e+04 -1.4621018858657538e+02 2.0179540983023387e+02 -1.4621018858657538e+02 6.1218424960258144e+03  5.9743868902251679e+03 5.8701787022344943e+03 2.9881499758247730e+02 5.8701787022344943e+03 4.3054964555630786e+03 -1.2614145849433179e+02 2.9881499758247725e+02 -1.2614145849433183e+02 4.1386358300103529e+03  7.0085430305170039e+03 2.7452542431465085e+03 2.0955849863428716e+02 2.7452542431465090e+03 -5.2363736233888858e+03 -1.3843547019757719e+02 2.0955849863428710e+02 -1.3843547019757713e+02 2.6069572678946547e+03  9.2340493725623346e+03 -4.2298290528759726e+03 5.1869554151411535e+01 -4.2298290528759726e+03 -8.7856851648701213e+03 -1.2713324089878596e+02 5.1869554151411506e+01 -1.2713324089878593e+02 3.7603614966919527e+03  1.0219917950957419e+04 4.0491967252536483e+03 7.1844863277356396e+01 4.0491967252536483e+03 2.3340369709482431e+04 5.6228202149109158e+01 7.1844863277356367e+01 5.6228202149109158e+01 1.0276313785864981e+04  9.3763488033666399e+03 5.1657892771812840e+03 1.7923630491089122e+02 5.1657892771812840e+03 1.4317077831330917e+04 -5.4810657116530649e+01 1.7923630491089125e+02 -5.4810657116530663e+01 7.8463740610591531e+03  9.7502461071363396e+03 4.5529379219411348e+03 1.9019075312188735e+02 4.5529379219411330e+03 6.4045137734468653e+03 -2.2057460792548878e+02 1.9019075312188733e+02 -2.2057460792548878e+02 6.6151795226627710e+03  1.0392841769933597e+04 1.5722897265276683e+03 6.3052168614960678e+01 1.5722897265276686e+03 2.8279580714334372e+02 -3.8704322519647729e+02 6.3052168614960650e+01 -3.8704322519647741e+02 6.2752844389048896e+03  1.1076213983993330e+04 -3.7213487767784022e+03 -1.1531782721053607e+02 -3.7213487767784022e+03 -1.1484079046727368e+03 -5.1504879398264370e+02 -1.1531782721053617e+02 -5.1504879398264370e+02 7.6411404431205556e+03  1.3405178469239410e+04 3.2515936360777678e+03 1.0235374254964981e+02 3.2515936360777687e+03 2.2235658424961541e+04 1.3035380195058383e+02 1.0235374254964981e+02 1.3035380195058380e+02 1.1500129423820421e+04  1.2885865684892884e+04 4.1540253806180581e+03 1.0721273338038471e+02 4.1540253806180572e+03 1.5232309374955874e+04 -4.7489629152762113e+01 1.0721273338038475e+02 -4.7489629152762113e+01 9.8908324153899139e+03  1.3142791164815248e+04 3.4727072404787577e+03 5.8777255894953640e+01 3.4727072404787564e+03 9.4432732948927405e+03 -2.7759750163548324e+02 5.8777255894953633e+01 -2.7759750163548313e+02 9.2122868524819842e+03  1.3446147949442629e+04 1.0776013692252809e+03 -7.1444949081131668e+01 1.0776013692252795e+03 5.6918650589437648e+03 -5.0622407559154544e+02 -7.1444949081131753e+01 -5.0622407559154533e+02 9.4040300572453780e+03  1.3607996148111250e+04 -2.6774405044570749e+03 -2.2780060851184018e+02 -2.6774405044570749e+03 5.5364469809236671e+03 -7.0470126042366019e+02 -2.2780060851184015e+02 -7.0470126042366019e+02 1.0873001345740873e+04  1.5610024145224706e+04 2.0783001985994929e+03 9.7982778969263791e+01 2.0783001985994929e+03 2.0881296134212233e+04 1.2181463127159408e+02 9.7982778969263805e+01 1.2181463127159404e+02 1.2367471120098713e+04  1.5360655012644562e+04 3.0446226673257133e+03 3.8262624501096340e+01 3.0446226673257133e+03 1.6223205113596436e+04 -7.0699040311740248e+01 3.8262624501096376e+01 -7.0699040311740262e+01 1.1581150790089268e+04  1.5615764141871639e+04 2.5947068658127155e+03 -3.9655428955560900e+01 2.5947068658127168e+03 1.2350246403225066e+04 -2.9374912184985914e+02 -3.9655428955560872e+01 -2.9374912184985914e+02 1.1333398822724552e+04  1.5811598911631047e+04 8.8406773569889333e+02 -1.5171387257565056e+02 8.8406773569889299e+02 1.0279354137255690e+04 -5.1732550511488421e+02 -1.5171387257565064e+02 -5.1732550511488387e+02 1.1803187914826991e+04  1.5787226025141379e+04 -1.5711371633254644e+03 -2.6088242951333001e+02 -1.5711371633254637e+03 1.0960955234611916e+04 -7.2511114062346144e+02 -2.6088242951332995e+02 -7.2511114062346098e+02 1.3260629738659287e+04  1.6822076875460774e+04 1.1644040730346130e+03 6.8884226725630668e+01 1.1644040730346123e+03 1.9449958351486432e+04 5.4008815767374877e+01 6.8884226725630683e+01 5.4008815767374855e+01 1.2767521502963207e+04  1.6666152421283790e+04 2.0280937568227998e+03 -1.6104888952235559e+01 2.0280937568227989e+03 1.6713760880112030e+04 -1.0851027837469914e+02 -1.6104888952235552e+01 -1.0851027837469911e+02 1.2565636732873059e+04  1.6881454456851756e+04 1.8252799654911198e+03 -9.6715010153879703e+01 1.8252799654911196e+03 1.4452770359707394e+04 -2.8448988837071659e+02 -9.6715010153879675e+01 -2.8448988837071659e+02 1.2640418346651859e+04  1.7058577887668522e+04 7.2684707650504220e+02 -1.7801803745538678e+02 7.2684707650504220e+02 1.3563791693973080e+04 -4.6260955695356159e+02 -1.7801803745538666e+02 -4.6260955695356159e+02 1.3256425449927128e+04  1.7035235947645237e+04 -6.6813749762774034e+02 -2.3127289965011158e+02 -6.6813749762774000e+02 1.4693172329536421e+04 -6.4161508530350011e+02 -2.3127289965011170e+02 -6.4161508530350011e+02 1.4642985521191744e+04  1.6774531389691605e+04 3.2720726142830989e+02 1.5511603843485169e+01 3.2720726142830972e+02 1.7798679446091704e+04 -6.0053579907077697e+01 1.5511603843485187e+01 -6.0053579907077712e+01 1.2446833973603740e+04  1.6652687202421323e+04 1.0829365856593074e+03 -5.5945456235206677e+01 1.0829365856593070e+03 1.6600535293754096e+04 -1.6516013907651268e+02 -5.5945456235206677e+01 -1.6516013907651268e+02 1.2723009204679560e+04  1.6868197784912252e+04 1.0860483185902017e+03 -1.1532978618820663e+02 1.0860483185902010e+03 1.5516729956358518e+04 -2.6713452050380056e+02 -1.1532978618820663e+02 -2.6713452050380067e+02 1.3036596955088184e+04  1.7114441602160969e+04 4.5382788130757638e+02 -1.6309868741550943e+02 4.5382788130757626e+02 1.5457990491467417e+04 -3.7631816191467925e+02 -1.6309868741550940e+02 -3.7631816191467919e+02 1.3776939100345307e+04  1.7150259790658994e+04 -1.7715692631314076e+02 -1.6859071158146665e+02 -1.7715692631314070e+02 1.6512656577867005e+04 -5.0116413580605092e+02 -1.6859071158146668e+02 -5.0116413580605064e+02 1.4981563747921442e+04  1.6298728143019318e+04 2.5337940464899276e+01 -1.6060849631967599e+01 2.5337940464899258e+01 1.6998130879315406e+04 -2.2806808107357668e+02 -1.6060849631967589e+01 -2.2806808107357668e+02 1.2139871001616808e+04  1.5572690438659260e+04 3.5106152000917598e+02 -4.8510708110619959e+01 3.5106152000917598e+02 1.6219401205004458e+04 -2.4826920196110757e+02 -4.8510708110619959e+01 -2.4826920196110760e+02 1.2292145462015895e+04  1.5885175957684152e+04 2.2015872187438788e+02 -7.9917837938805221e+01 2.2015872187438794e+02 1.5758332020126860e+04 -2.4466288891873882e+02 -7.9917837938805206e+01 -2.4466288891873873e+02 1.2750600756173037e+04  1.6741497787806173e+04 -8.3750589223358986e+01 -8.4170417877906473e+01 -8.3750589223358901e+01 1.6194894399093628e+04 -2.6117184205162624e+02 -8.4170417877906473e+01 -2.6117184205162624e+02 1.3785331818086310e+04  1.6896407162217827e+04 -1.5120934208186767e+02 -6.8705607072699294e+01 -1.5120934208186759e+02 1.6926671437914629e+04 -3.0099405370129500e+02 -6.8705607072699294e+01 -3.0099405370129500e+02 1.4819740943030076e+04  2.1079534565062331e+04 1.2033560597998430e+04 -3.8396023378672476e+02 1.2033560597998428e+04 3.8723817358708402e+04 -2.2422458916791893e+03 -3.8396023378672476e+02 -2.2422458916791893e+03 2.3378000649568603e+04  7.1049440916478598e+03 5.1570647930557207e+03 2.1444780740023905e+01 5.1570647930557216e+03 1.2965202142124173e+04 -1.1933717156026223e+03 2.1444780740023770e+01 -1.1933717156026223e+03 7.8229135253633631e+03  6.1355516041803378e+02 2.9103638259359086e+03 -5.8378081941026183e+00 2.9103638259359095e+03 1.5083276123128840e+03 4.9127566524014021e+00 -5.8378081941027471e+00 4.9127566524015487e+00 7.3973198038237592e+02  -5.4721043283439776e+03 3.2981522187740575e+03 -1.8107000075490379e+02 3.2981522187740575e+03 -8.0220402484656861e+03 1.3688768100095351e+03 -1.8107000075490382e+02 1.3688768100095365e+03 -5.4499209476643546e+03  -3.4021565858280577e+04 1.1647588294500287e+04 1.0692204702953557e+03 1.1647588294500287e+04 -4.9042735103671344e+04 1.8672048209224465e+03 1.0692204702953561e+03 1.8672048209224470e+03 -3.2374946972009995e+04  3.3167549566814014e+03 3.2651523039951580e+03 -1.0953157096467947e+02 3.2651523039951580e+03 2.5357398400440881e+04 -1.1060496932755964e+03 -1.0953157096467956e+02 -1.1060496932755971e+03 8.1368887124478551e+03  2.3024681629944876e+03 6.4773877450534474e+03 3.7127967067075804e+02 6.4773877450534492e+03 1.5716961516969468e+04 -6.4067826221277107e+02 3.7127967067075781e+02 -6.4067826221277119e+02 5.3293599058170694e+03  1.4321106910786004e+03 6.0969530693025354e+03 6.2553102813746193e+02 6.0969530693025326e+03 3.0448475785448663e+03 -9.3484057476907225e+01 6.2553102813746159e+02 -9.3484057476907253e+01 1.7489774371503256e+03  2.2474849064319319e+03 4.4255051371301624e+03 6.7966792695479376e+02 4.4255051371301624e+03 -9.1702005424564668e+03 4.9891261227430880e+02 6.7966792695479376e+02 4.9891261227430891e+02 -1.0764251884788293e+03  9.9823070900110924e+03 -3.1444818640739309e+03 5.0555567442855613e+02 -3.1444818640739309e+03 -1.9087480783916166e+04 9.0656120764468460e+02 5.0555567442855642e+02 9.0656120764468460e+02 3.4088516000468962e+02  6.5512508004161155e+03 4.4053073352134097e+03 -4.8353621436999719e+00 4.4053073352134088e+03 2.4789575433502258e+04 -3.0598935767462831e+02 -4.8353621437001078e+00 -3.0598935767462825e+02 8.4911531586590791e+03  5.1733136536240581e+03 5.7670645850268465e+03 4.1313518148918769e+02 5.7670645850268447e+03 1.4023368046349990e+04 -2.4449597066258534e+02 4.1313518148918780e+02 -2.4449597066258525e+02 5.5602432327174311e+03  5.7213116593300283e+03 5.6564908121037342e+03 6.1356105339019223e+02 5.6564908121037352e+03 4.3000209751025350e+03 -2.2132096573320499e+02 6.1356105339019223e+02 -2.2132096573320499e+02 4.1234344445482529e+03  6.7009197388851853e+03 2.6063099049795687e+03 4.5166967084754509e+02 2.6063099049795687e+03 -5.1902018535099105e+03 -2.2096736698579448e+02 4.5166967084754504e+02 -2.2096736698579448e+02 3.1315498652058518e+03  8.9522717143000409e+03 -4.2339562594774479e+03 1.3951585914716023e+02 -4.2339562594774470e+03 -8.9559088478313697e+03 -1.3351140310848655e+02 1.3951585914716026e+02 -1.3351140310848649e+02 4.8189282565786825e+03  1.0067963686323337e+04 4.0238043835781932e+03 7.1573217058857736e+01 4.0238043835781905e+03 2.3178027083843404e+04 9.2357228080571119e+01 7.1573217058857722e+01 9.2357228080571090e+01 9.6585362368302049e+03  9.2502048914681200e+03 5.0475059597746367e+03 3.0433478549101960e+02 5.0475059597746367e+03 1.4231756429075762e+04 -8.4420203385202186e+01 3.0433478549101960e+02 -8.4420203385202186e+01 7.5495410788424269e+03  9.6200065259069706e+03 4.4385702200007790e+03 3.4731312269196718e+02 4.4385702200007809e+03 6.4192463496505088e+03 -3.6168768693760472e+02 3.4731312269196707e+02 -3.6168768693760484e+02 6.6260101513256395e+03  1.0234469854329827e+04 1.5156537277529087e+03 1.2852264950910637e+02 1.5156537277529096e+03 3.4560289817329829e+02 -6.3764113010206904e+02 1.2852264950910637e+02 -6.3764113010206904e+02 6.5827646854589120e+03  1.0954908127556206e+04 -3.7356573981986535e+03 -2.2024218051685295e+02 -3.7356573981986521e+03 -1.1330853969002676e+03 -8.8231975798202586e+02 -2.2024218051685287e+02 -8.8231975798202564e+02 8.3347666838196856e+03  1.3409948973992601e+04 3.2539200302174263e+03 1.1791118836222689e+02 3.2539200302174268e+03 2.2234659874811739e+04 2.2960430042001565e+02 1.1791118836222687e+02 2.2960430042001559e+02 1.1365825506005594e+04  1.2882809965426301e+04 4.1166989671702077e+03 1.4535277499679776e+02 4.1166989671702049e+03 1.5182597757775451e+04 -5.8993226709095403e+01 1.4535277499679773e+02 -5.8993226709095403e+01 9.8053841965868050e+03  1.3153144042443002e+04 3.4525658374127229e+03 8.1427030604551248e+01 3.4525658374127229e+03 9.4526441365071478e+03 -4.1661228841837487e+02 8.1427030604551192e+01 -4.1661228841837493e+02 9.2348545802706085e+03  1.3462092071928053e+04 1.0805816172866162e+03 -1.2746094456208694e+02 1.0805816172866159e+03 5.7899633297261225e+03 -7.8017538983619613e+02 -1.2746094456208677e+02 -7.8017538983619613e+02 9.5525934778516312e+03  1.3658072430881653e+04 -2.6768338008497558e+03 -4.1646091194407990e+02 -2.6768338008497567e+03 5.7340843206027512e+03 -1.1648327473949857e+03 -4.1646091194407995e+02 -1.1648327473949860e+03 1.1224312597143355e+04  1.5715422967958986e+04 2.0864744432478101e+03 1.1605235060074720e+02 2.0864744432478115e+03 2.0973963888963448e+04 2.1974307192490855e+02 1.1605235060074719e+02 2.1974307192490843e+02 1.2572368458762397e+04  1.5431135569639764e+04 3.0603786254479328e+03 1.3509424660285664e+01 3.0603786254479319e+03 1.6191531684499738e+04 -7.8582764418398426e+01 1.3509424660285680e+01 -7.8582764418398398e+01 1.1636398279458810e+04  1.5696372251201687e+04 2.6298254210176742e+03 -1.0107706956220085e+02 2.6298254210176747e+03 1.2332286296534587e+04 -4.0446220786317389e+02 -1.0107706956220080e+02 -4.0446220786317366e+02 1.1352514330799506e+04  1.5914416210586971e+04 9.1817048965819436e+02 -2.6673164516228724e+02 9.1817048965819379e+02 1.0367770733184694e+04 -7.4549963507111374e+02 -2.6673164516228735e+02 -7.4549963507111397e+02 1.1834502319336152e+04  1.5925018392044658e+04 -1.5537725780248836e+03 -4.5777920715346482e+02 -1.5537725780248838e+03 1.1210226526362600e+04 -1.1378735402147877e+03 -4.5777920715346499e+02 -1.1378735402147877e+03 1.3343210402710893e+04  1.6914267006886563e+04 1.1657439290270063e+03 7.6996766624264751e+01 1.1657439290270067e+03 1.9510592412685342e+04 1.0984416461798484e+02 7.6996766624264751e+01 1.0984416461798482e+02 1.3134314835491057e+04  1.6716468970585342e+04 2.0627559637961249e+03 -8.2159667882211167e+01 2.0627559637961244e+03 1.6654580846749854e+04 -1.1935294454261154e+02 -8.2159667882211167e+01 -1.1935294454261147e+02 1.2678342818685143e+04  1.6933797755733911e+04 1.8764468476921243e+03 -2.0402909401900732e+02 1.8764468476921243e+03 1.4384462935739733e+04 -3.5657044799561447e+02 -2.0402909401900723e+02 -3.5657044799561453e+02 1.2628351150793173e+04  1.7138476448482776e+04 7.6545758638177551e+02 -3.1041293510477061e+02 7.6545758638177551e+02 1.3594161840655554e+04 -6.1592124802261105e+02 -3.1041293510477044e+02 -6.1592124802261048e+02 1.3179554287153669e+04  1.7151508503102414e+04 -6.4425274815437524e+02 -3.9097511956017064e+02 -6.4425274815437490e+02 1.4879787013469144e+04 -9.3916941971961944e+02 -3.9097511956017064e+02 -9.3916941971961944e+02 1.4503196200183607e+04  1.6742704210391388e+04 3.2111080323096769e+02 6.3404029008041440e-01 3.2111080323096769e+02 1.7730915456404808e+04 -7.8256316133494963e+01 6.3404029008043061e-01 -7.8256316133494963e+01 1.2822434422572867e+04  1.6586875209056721e+04 1.1088702051439400e+03 -1.6035078201736545e+02 1.1088702051439395e+03 1.6462993749259051e+04 -1.8468226561090390e+02 -1.6035078201736545e+02 -1.8468226561090384e+02 1.2816936956191665e+04  1.6805409553677502e+04 1.1225709581982715e+03 -2.6099416890389801e+02 1.1225709581982717e+03 1.5370661220878135e+04 -2.9934563255259468e+02 -2.6099416890389807e+02 -2.9934563255259474e+02 1.2959580764635226e+04  1.7082089907181427e+04 4.7341465056809466e+02 -3.0540250237396657e+02 4.7341465056809471e+02 1.5387572208473275e+04 -4.4972501468359263e+02 -3.0540250237396651e+02 -4.4972501468359263e+02 1.3581365071487044e+04  1.7165539970311791e+04 -1.6547521635458915e+02 -2.7750287842740437e+02 -1.6547521635458909e+02 1.6559803370935377e+04 -6.6393522670681432e+02 -2.7750287842740431e+02 -6.6393522670681421e+02 1.4651245932718155e+04  1.6121404680273248e+04 2.0454028267899883e+01 -5.9321008070902820e+01 2.0454028267899975e+01 1.6830820056307872e+04 -3.0452763093042904e+02 -5.9321008070902813e+01 -3.0452763093042904e+02 1.2493217878922120e+04  1.5335365575524986e+04 3.5726584836877055e+02 -2.1927337823751418e+02 3.5726584836877061e+02 1.5991395816684944e+04 -2.7027726865010197e+02 -2.1927337823751415e+02 -2.7027726865010192e+02 1.2338530850193685e+04  1.5668650315078541e+04 2.2258053841017164e+02 -3.0507263695037256e+02 2.2258053841017176e+02 1.5528396509700557e+04 -2.5200082359050231e+02 -3.0507263695037261e+02 -2.5200082359050225e+02 1.2568760035122386e+04  1.6592028568646110e+04 -9.1148343755498345e+01 -2.7648042085721340e+02 -9.1148343755498416e+01 1.6027533672504083e+04 -2.8467582323728863e+02 -2.7648042085721335e+02 -2.8467582323728857e+02 1.3422540313035888e+04  1.6804468089674243e+04 -1.5755295596436173e+02 -1.5870867217030192e+02 -1.5755295596436187e+02 1.6831091205412667e+04 -3.7560890257692131e+02 -1.5870867217030195e+02 -3.7560890257692131e+02 1.4286008471501615e+04  2.0435612430411475e+04 1.1368435352545355e+04 -7.1879671987055985e+02 1.1368435352545355e+04 3.7418687806979957e+04 -4.6092733035701103e+03 -7.1879671987055997e+02 -4.6092733035701103e+03 2.2510756955991859e+04  6.6774430862957779e+03 4.8096492578377074e+03 4.7895553059581125e+01 4.8096492578377056e+03 1.2591839781706152e+04 -2.4614684772430764e+03 4.7895553059581253e+01 -2.4614684772430778e+03 7.3631165682605942e+03  6.0101752878803359e+02 2.5098582668768386e+03 1.2770899612044192e+02 2.5098582668768395e+03 1.7042229222086712e+03 4.8549639342207911e+01 1.2770899612044198e+02 4.8549639342207975e+01 6.4230590223533113e+02  -4.7645227426164120e+03 2.8261281803841835e+03 -2.0913546853397886e+01 2.8261281803841830e+03 -7.3413479675940744e+03 2.7052211604281506e+03 -2.0913546853397744e+01 2.7052211604281506e+03 -4.8700646260310486e+03  -2.9859241387130103e+04 1.0257761353252041e+04 1.1648597297260565e+03 1.0257761353252043e+04 -4.3283123216879569e+04 4.9986214621068693e+03 1.1648597297260569e+03 4.9986214621068684e+03 -2.7837048442530388e+04  2.8660030876985788e+03 2.8096004788976747e+03 -9.1348798795711929e+01 2.8096004788976775e+03 2.4899512553175897e+04 -1.7184073875777408e+03 -9.1348798795711943e+01 -1.7184073875777408e+03 5.5404340689104529e+03  1.8153974484065723e+03 5.8913138688311474e+03 5.4073842370844898e+02 5.8913138688311483e+03 1.5731356995127684e+04 -8.3679814973098951e+02 5.4073842370844886e+02 -8.3679814973098939e+02 3.8109409571118890e+03  1.0342110471203941e+03 5.4902707366901486e+03 9.4935992334180446e+02 5.4902707366901486e+03 3.1752030344793002e+03 -5.7767701318009848e+01 9.4935992334180412e+02 -5.7767701318009919e+01 1.6289352050421519e+03  1.8824489917270837e+03 3.8518705461998034e+03 1.0145879411259265e+03 3.8518705461998038e+03 -8.7228416019906272e+03 7.4742895986928067e+02 1.0145879411259264e+03 7.4742895986928090e+02 5.7206464957018545e+02  9.5268743524464626e+03 -3.1048470420413250e+03 8.8318329925027115e+02 -3.1048470420413259e+03 -1.8525939448779696e+04 1.5019746016075203e+03 8.8318329925027115e+02 1.5019746016075212e+03 3.1877035768540704e+03  6.4342458241059767e+03 4.1494317145728710e+03 1.7600206807264971e+01 4.1494317145728701e+03 2.4468138198326749e+04 -2.0641588047584443e+02 1.7600206807264929e+01 -2.0641588047584443e+02 7.0382338519280647e+03  4.9231903597931905e+03 5.3703736788138949e+03 5.1304969751873114e+02 5.3703736788138949e+03 1.3922531641441048e+04 -1.7819352605969453e+02 5.1304969751873136e+02 -1.7819352605969459e+02 4.8253132803800891e+03  5.4855557706839454e+03 5.2731286744562340e+03 7.6898551605929299e+02 5.2731286744562349e+03 4.6317631610663830e+03 -2.7552136885364763e+02 7.6898551605929265e+02 -2.7552136885364746e+02 4.2492373559553025e+03  6.3817891785532720e+03 2.4422828226248262e+03 5.1765005156530174e+02 2.4422828226248234e+03 -4.5143542292018010e+03 -4.1051172968330354e+02 5.1765005156530174e+02 -4.1051172968330366e+02 4.1415880924394596e+03  8.7200134682228745e+03 -4.1012509823612172e+03 -6.0804508543527778e+00 -4.1012509823612163e+03 -8.7832375892775090e+03 -5.0054896374441915e+02 -6.0804508543528470e+00 -5.0054896374441910e+02 6.7127680136459103e+03  1.0260688902130307e+04 3.9109966182930370e+03 6.9152777978787384e+01 3.9109966182930393e+03 2.3242955175987761e+04 2.4989849721040454e+02 6.9152777978787327e+01 2.4989849721040443e+02 9.1604131625086011e+03  9.2608661333984783e+03 4.9089307051336427e+03 3.1236835464881688e+02 4.9089307051336427e+03 1.4170187540777963e+04 -6.6247204305735380e+01 3.1236835464881699e+02 -6.6247204305735423e+01 7.3231470867167473e+03  9.6776860393830921e+03 4.3895957011495657e+03 3.3545877104722882e+02 4.3895957011495648e+03 6.6892713714189240e+03 -4.3463666126858425e+02 3.3545877104722859e+02 -4.3463666126858419e+02 6.8413022955290435e+03  1.0333390589681527e+04 1.6089404608630189e+03 3.0737776414332743e+01 1.6089404608630193e+03 9.1921405361700590e+02 -8.0024387054664066e+02 3.0737776414332707e+01 -8.0024387054664078e+02 7.1929537882294489e+03  1.1174922583438720e+04 -3.6546429352485529e+03 -4.6485459025349957e+02 -3.6546429352485534e+03 -4.6892390812070232e+02 -1.3347752904886163e+03 -4.6485459025349968e+02 -1.3347752904886163e+03 9.4911108143324109e+03  1.3873890894427397e+04 3.2346544711326360e+03 1.0141020678608456e+02 3.2346544711326374e+03 2.2651216390623464e+04 3.6215850876817916e+02 1.0141020678608457e+02 3.6215850876817916e+02 1.1602057883264159e+04  1.3128317618224661e+04 4.1828114015222336e+03 1.0690002827387370e+02 4.1828114015222345e+03 1.5180798798649897e+04 -9.0560522700038675e+01 1.0690002827387369e+02 -9.0560522700038717e+01 9.8814689345281877e+03  1.3421814225136815e+04 3.6056886001524126e+03 1.1556413633397649e+00 3.6056886001524122e+03 9.5545729299161158e+03 -4.7424215271520580e+02 1.1556413633397780e+00 -4.7424215271520580e+02 9.4435677043590549e+03  1.3825005445809975e+04 1.2637638641261126e+03 -2.6962377933978365e+02 1.2637638641261121e+03 6.1389436623121428e+03 -8.5420957882756477e+02 -2.6962377933978382e+02 -8.5420957882756488e+02 9.9165475908175431e+03  1.4172427430303311e+04 -2.6378287305394492e+03 -6.5457084736475213e+02 -2.6378287305394492e+03 6.5332379197557366e+03 -1.4991816806358111e+03 -6.5457084736475224e+02 -1.4991816806358111e+03 1.1915910573585275e+04  1.6271374097269889e+04 2.0953013573214253e+03 9.3158954412993253e+01 2.0953013573214253e+03 2.1528258665911850e+04 2.9567095129073022e+02 9.3158954412993225e+01 2.9567095129073022e+02 1.3234148078979864e+04  1.5768336876570242e+04 3.2238886669332910e+03 -3.9255219772574144e+01 3.2238886669332887e+03 1.6206279883877856e+04 -1.3648438548378539e+02 -3.9255219772574165e+01 -1.3648438548378536e+02 1.1874126718193980e+04  1.6027424077889043e+04 2.8553633410164421e+03 -1.9393356062923337e+02 2.8553633410164421e+03 1.2292002971193857e+04 -4.4710115392071805e+02 -1.9393356062923328e+02 -4.4710115392071810e+02 1.1514873276840462e+04  1.6332536705096240e+04 1.1039408535806488e+03 -3.9771852326490955e+02 1.1039408535806492e+03 1.0515712840764449e+04 -7.6610186758772556e+02 -3.9771852326490944e+02 -7.6610186758772556e+02 1.2002090085715616e+04  1.6487768885309502e+04 -1.5310916545098332e+03 -6.5122635148828772e+02 -1.5310916545098332e+03 1.1887724824307597e+04 -1.3491887147848774e+03 -6.5122635148828783e+02 -1.3491887147848784e+03 1.3645702382883925e+04  1.7370229941167774e+04 1.1762647479482744e+03 5.6394169819450020e+01 1.1762647479482750e+03 1.9950028758730612e+04 1.4810385559920459e+02 5.6394169819449971e+01 1.4810385559920465e+02 1.3951929556485396e+04  1.6985911305362566e+04 2.2411321178118069e+03 -1.2865105066046641e+02 2.2411321178118064e+03 1.6622508944501831e+04 -1.7951364082295854e+02 -1.2865105066046650e+02 -1.7951364082295854e+02 1.2956720724513258e+04  1.7179478596389450e+04 2.0931493523585805e+03 -2.8451731365137556e+02 2.0931493523585809e+03 1.4239639183211420e+04 -3.8326805226775247e+02 -2.8451731365137567e+02 -3.8326805226775235e+02 1.2702649305393716e+04  1.7447539362971758e+04 9.1876657687060845e+02 -4.0826486344386586e+02 9.1876657687060879e+02 1.3587675866040641e+04 -6.0595955478145356e+02 -4.0826486344386569e+02 -6.0595955478145333e+02 1.3153650464104516e+04  1.7572523907026236e+04 -6.2253639782679977e+02 -5.2073014419965307e+02 -6.2253639782679977e+02 1.5330928391301755e+04 -1.0414895496335059e+03 -5.2073014419965295e+02 -1.0414895496335064e+03 1.4435361129191540e+04  1.6906501848570286e+04 3.1859862992643264e+02 -2.1818246666569852e+01 3.1859862992643298e+02 1.7835349975107958e+04 -1.1194298605598392e+02 -2.1818246666569877e+01 -1.1194298605598388e+02 1.3520565937857118e+04  1.6625781625425039e+04 1.2380771390986981e+03 -1.9907469930031567e+02 1.2380771390986990e+03 1.6306946614922676e+04 -2.3619808532719009e+02 -1.9907469930031567e+02 -2.3619808532719009e+02 1.3013477412940974e+04  1.6822930670602207e+04 1.2756381086133238e+03 -3.2912702495749585e+02 1.2756381086133242e+03 1.5119576435958099e+04 -3.0440673242095772e+02 -3.2912702495749573e+02 -3.0440673242095750e+02 1.2885398202741630e+04  1.7154547540331932e+04 5.7159164004474053e+02 -3.6924090861513611e+02 5.7159164004474053e+02 1.5245170631461293e+04 -4.1723543115833422e+02 -3.6924090861513605e+02 -4.1723543115833399e+02 1.3341152075936610e+04  1.7326972924981859e+04 -1.5157567923013465e+02 -3.3919742396054824e+02 -1.5157567923013451e+02 1.6745217293846599e+04 -6.6377798148991462e+02 -3.3919742396054818e+02 -6.6377798148991462e+02 1.4251265659125449e+04  1.5957189052861961e+04 5.0099868645239720e+00 -1.0160770783879386e+02 5.0099868645241097e+00 1.6679784365270531e+04 -3.5339125691984941e+02 -1.0160770783879381e+02 -3.5339125691984930e+02 1.3072416098015508e+04  1.4987600427064272e+04 3.9034583650618589e+02 -3.2119841004361194e+02 3.9034583650618600e+02 1.5652046085247133e+04 -2.7803986310218846e+02 -3.2119841004361194e+02 -2.7803986310218846e+02 1.2401173744255348e+04  1.5322043714914091e+04 2.4594932852926084e+02 -4.7422299336726724e+02 2.4594932852926152e+02 1.5128853486756154e+04 -2.2184273797047044e+02 -4.7422299336726729e+02 -2.2184273797047047e+02 1.2294407357367092e+04  1.6404362728946926e+04 -1.0532867608275060e+02 -4.0981622300221511e+02 -1.0532867608275063e+02 1.5761979959156928e+04 -2.5517749028347293e+02 -4.0981622300221517e+02 -2.5517749028347265e+02 1.2936457989652095e+04  1.6723397711969901e+04 -1.8656048177125658e+02 -2.1948256735406562e+02 -1.8656048177125652e+02 1.6758027022564424e+04 -3.6916513411671394e+02 -2.1948256735406557e+02 -3.6916513411671389e+02 1.3603378128739358e+04  2.7308561074418067e+04 1.1175780831882819e+04 -2.8439191986760170e+03 1.1175780831882825e+04 4.7882897390256614e+04 -8.8831730255027651e+03 -2.8439191986760175e+03 -8.8831730255027633e+03 3.2491948406901032e+04  9.6708914380925344e+03 2.7132049695525943e+03 -4.1429826308115466e+01 2.7132049695525989e+03 1.7624870492658734e+04 -5.2260026293629726e+03 -4.1429826308115679e+01 -5.2260026293629708e+03 1.2321214930026517e+04  -1.6648228881216721e+02 -4.7743457118127071e+02 5.6699535669885177e+02 -4.7743457118126969e+02 6.8109498033943760e+02 -8.0272882515841943e+01 5.6699535669885188e+02 -8.0272882515842298e+01 4.0025902398988546e+02  -1.0964846120455877e+04 -1.0743205543151025e+03 6.3300932685579699e+02 -1.0743205543151023e+03 -1.6043153352901512e+04 6.2613245276159105e+03 6.3300932685579699e+02 6.2613245276159105e+03 -1.0855884812401448e+04  -2.9539352680501957e+04 6.2129469117303661e+03 1.3519578269311805e+03 6.2129469117303679e+03 -4.2672391659745364e+04 1.2474120998376733e+04 1.3519578269311803e+03 1.2474120998376735e+04 -2.6545751753099423e+04  1.5969627845340997e+03 1.4375831052183853e+03 -5.9723181228899568e+02 1.4375831052183851e+03 2.1253915210811581e+04 -1.3622057432511488e+03 -5.9723181228899568e+02 -1.3622057432511488e+03 2.7240123187385148e+03  -4.8233850307372472e+02 4.8072602094881258e+03 -2.8371893902911349e+01 4.8072602094881249e+03 1.5789084285294628e+04 2.3668355705970333e+02 -2.8371893902911435e+01 2.3668355705970362e+02 7.6623033821273486e+02  3.3343928631998216e+02 4.2623240923049780e+03 3.1047944820773233e+02 4.2623240923049780e+03 4.1314713501055521e+03 4.6200042092445909e+02 3.1047944820773205e+02 4.6200042092445892e+02 5.6781531022832246e+02  2.5339250734242796e+03 2.6439216371261223e+03 5.7144712610953957e+02 2.6439216371261241e+03 -5.3398217957985853e+03 3.0599140412045961e+02 5.7144712610953991e+02 3.0599140412045949e+02 2.7853063423199960e+03  1.1284579026495403e+04 -3.1625942891872360e+03 4.1370044779860439e+02 -3.1625942891872360e+03 -1.4948053483946087e+04 -3.6646586780439310e+02 4.1370044779860444e+02 -3.6646586780439361e+02 9.8543728240333658e+03  5.5780819149404697e+03 4.0273217240299887e+03 -3.0213628016878255e+02 4.0273217240299896e+03 2.3557870749612073e+04 7.1817654470617839e+01 -3.0213628016878255e+02 7.1817654470617882e+01 6.1901411517600318e+03  4.2662471676937121e+03 4.9577505871956882e+03 -7.9159026902908067e+01 4.9577505871956901e+03 1.3329514798221724e+04 1.2492066697935569e+02 -7.9159026902908067e+01 1.2492066697935580e+02 4.4641935123058674e+03  6.1086768846409504e+03 5.1823924597807845e+03 1.0705206955100675e+02 5.1823924597807854e+03 6.0809573295463670e+03 6.8531112468155314e+01 1.0705206955100662e+02 6.8531112468155257e+01 4.9285225136131348e+03  7.5416646565376104e+03 2.7555300080886200e+03 3.4913625480267292e+01 2.7555300080886204e+03 -1.4106830340036367e+03 -1.6361672171369602e+02 3.4913625480267292e+01 -1.6361672171369599e+02 5.4711888580947416e+03  9.0237367274358421e+03 -3.2414521738594021e+03 -2.9516681354355063e+02 -3.2414521738594021e+03 -5.9545057923894556e+03 -5.8622595153236819e+02 -2.9516681354355069e+02 -5.8622595153236819e+02 8.0519627264635819e+03  9.6188895100342852e+03 4.0900410029993768e+03 -9.7000631489902659e+01 4.0900410029993759e+03 2.2785833207300471e+04 7.6161004031151748e+01 -9.7000631489902645e+01 7.6161004031151819e+01 8.9702495921860427e+03  9.1646400290986148e+03 5.2151609629707700e+03 -4.8648604168965065e+01 5.2151609629707737e+03 1.3875279606684677e+04 -9.1378201874831433e+01 -4.8648604168965015e+01 -9.1378201874831447e+01 7.4645634188899057e+03  1.0248800172658059e+04 4.9181469989806128e+03 -8.9447951150167128e+01 4.9181469989806119e+03 7.1575538682560846e+03 -1.4801000305092947e+02 -8.9447951150167128e+01 -1.4801000305092950e+02 7.3147272590747225e+03  1.1492189399577703e+04 2.3950483260595861e+03 -2.6424820190492659e+02 2.3950483260595852e+03 2.2290433768899888e+03 -2.0270451260165007e+02 -2.6424820190492670e+02 -2.0270451260165001e+02 8.0038141164642102e+03  1.2428675321975115e+04 -3.1454319661306381e+03 -5.4507746613642928e+02 -3.1454319661306404e+03 1.6017601910957185e+03 -5.9450076236552309e+02 -5.4507746613642939e+02 -5.9450076236552377e+02 1.0663906858343218e+04  1.3605443068337945e+04 3.6204574347280577e+03 -3.2209823652089106e+01 3.6204574347280573e+03 2.2643835998773582e+04 4.6264523495851172e+01 -3.2209823652089092e+01 4.6264523495851194e+01 1.1798965272851288e+04  1.3286146728703166e+04 4.7692028409505447e+03 -6.6824290763064013e+01 4.7692028409505447e+03 1.4814613439329547e+04 -2.8687148692472334e+02 -6.6824290763064027e+01 -2.8687148692472340e+02 1.0110455186832218e+04  1.3926706205372995e+04 4.3317709591457879e+03 -1.9364742387065050e+02 4.3317709591457888e+03 9.3156671037708365e+03 -2.8831130605355992e+02 -1.9364742387065044e+02 -2.8831130605355986e+02 9.7195290297263364e+03  1.4755680043955383e+04 2.0387655522001901e+03 -3.8825274083137384e+02 2.0387655522001903e+03 6.2133580086383126e+03 -2.6528629661982001e+02 -3.8825274083137401e+02 -2.6528629661982001e+02 1.0340692595495168e+04  1.5522084360185458e+04 -2.3871760259160728e+03 -6.2621849898685105e+02 -2.3871760259160733e+03 7.7212602833853516e+03 -5.6748642410658613e+02 -6.2621849898685150e+02 -5.6748642410658636e+02 1.2832094729447783e+04  1.6141853218007491e+04 2.4088096637419885e+03 4.6497190540349131e+01 2.4088096637419890e+03 2.1641481978443077e+04 -1.1957704545164169e+02 4.6497190540349131e+01 -1.1957704545164168e+02 1.3612334892466195e+04  1.5993130776153735e+04 3.8512772615392541e+03 -8.5452113547031388e+01 3.8512772615392528e+03 1.5841972386369220e+04 -4.0791030520787450e+02 -8.5452113547031374e+01 -4.0791030520787444e+02 1.2100439295307051e+04  1.6438323794578100e+04 3.5528502286417720e+03 -2.3200870666080056e+02 3.5528502286417715e+03 1.1720295394750077e+04 -3.6197557623345318e+02 -2.3200870666080056e+02 -3.6197557623345324e+02 1.1646459199377307e+04  1.6974257021830297e+04 1.7243808109299821e+03 -4.0178149494370024e+02 1.7243808109299821e+03 9.9516261275368815e+03 -3.2253768562404827e+02 -4.0178149494370030e+02 -3.2253768562404832e+02 1.2132451688152563e+04  1.7571688548772468e+04 -1.4373374268770704e+03 -5.8933835060147373e+02 -1.4373374268770706e+03 1.2397566120927535e+04 -5.6115142850757616e+02 -5.8933835060147362e+02 -5.6115142850757684e+02 1.4194667226689045e+04  1.7572937100715386e+04 1.4782098496301078e+03 4.8182172129022284e+01 1.4782098496301069e+03 2.0428131565264459e+04 -1.6588244696209350e+02 4.8182172129022291e+01 -1.6588244696209350e+02 1.4572458261297270e+04  1.7262750327642501e+04 2.7913701812911595e+03 -8.3112337778845500e+01 2.7913701812911604e+03 1.6365257213473278e+04 -4.3583431765339606e+02 -8.3112337778845514e+01 -4.3583431765339611e+02 1.3175169908756550e+04  1.7509675251364170e+04 2.6688429878042102e+03 -2.1697262516284445e+02 2.6688429878042120e+03 1.3651895810083313e+04 -3.7460390013686856e+02 -2.1697262516284445e+02 -3.7460390013686856e+02 1.2757128448210935e+04  1.7818490905381008e+04 1.3697662818217832e+03 -3.4312013641407805e+02 1.3697662818217827e+03 1.2838386204891351e+04 -3.3651995316791152e+02 -3.4312013641407805e+02 -3.3651995316791130e+02 1.3087177283506746e+04  1.8265895507046425e+04 -6.1551215872195041e+02 -4.6208613083163397e+02 -6.1551215872195053e+02 1.5377148453926309e+04 -5.0984472217821332e+02 -4.6208613083163408e+02 -5.0984472217821349e+02 1.4587957582785051e+04  1.6941800389486081e+04 4.4696931632811942e+02 3.9829833251663786e+01 4.4696931632811862e+02 1.8075207916269217e+04 -3.1441043153789468e+02 3.9829833251663793e+01 -3.1441043153789468e+02 1.4067596729267161e+04  1.6800085743416370e+04 1.6146846698394884e+03 -7.1364758009883388e+01 1.6146846698394886e+03 1.6143224741882759e+04 -4.2056903732460211e+02 -7.1364758009883431e+01 -4.2056903732460205e+02 1.3200574291730187e+04  1.7011569554282105e+04 1.6836862883379981e+03 -1.8577549217269862e+02 1.6836862883379983e+03 1.4618546131828254e+04 -3.4145456187881479e+02 -1.8577549217269862e+02 -3.4145456187881496e+02 1.2860313125172406e+04  1.7256463909905742e+04 8.7135521439421427e+02 -2.5707296360019370e+02 8.7135521439421427e+02 1.4608548616408259e+04 -3.1221315029201179e+02 -2.5707296360019376e+02 -3.1221315029201156e+02 1.3128559358837942e+04  1.7599031249526121e+04 -1.6572459124052082e+02 -2.8750868529246173e+02 -1.6572459124052077e+02 1.6596756785749665e+04 -3.9713430696571811e+02 -2.8750868529246168e+02 -3.9713430696571800e+02 1.4052115395365487e+04  1.5836178093789884e+04 -2.1470995562445466e+01 9.9586570279616247e+00 -2.1470995562445456e+01 1.6554399629759504e+04 -4.2940902183535428e+02 9.9586570279616407e+00 -4.2940902183535428e+02 1.3405718236788347e+04  1.4812317167252048e+04 5.0415383154564182e+02 -8.6986510799237934e+01 5.0415383154564188e+02 1.5330509440851349e+04 -3.7908388618450783e+02 -8.6986510799237962e+01 -3.7908388618450783e+02 1.2453064309731422e+04  1.4963290642538777e+04 4.0570902615163641e+02 -2.3813562859616925e+02 4.0570902615163595e+02 1.4529297620028679e+04 -2.6328891856046755e+02 -2.3813562859616931e+02 -2.6328891856046744e+02 1.1999475033975059e+04  1.6031338675661756e+04 -1.8194160090945680e-01 -2.5735477435711613e+02 -1.8194160090947450e-01 1.5236951213023262e+04 -2.5520754322309926e+02 -2.5735477435711618e+02 -2.5520754322309921e+02 1.2442014508547874e+04  1.6644605814663715e+04 -2.2533038963470116e+02 -1.6605845990390145e+02 -2.2533038963470108e+02 1.6647212268322328e+04 -3.0901955520300459e+02 -1.6605845990390145e+02 -3.0901955520300430e+02 1.3194356043983564e+04  </DataArray> 
</PointData> 
</Piece>
</UnstructuredGrid>
</VTKFile>